     Program PWSCF v.6.7MaX starts on 14Mar2022 at 10:20: 6

     R & G space division:  proc/nbgrp/npool/nimage =      72
     Reading input from relaxed.in

     Current dimensions of program PWSCF are:
     Max number of different atomic species (ntypx) = 10
     Max number of k-points (npk) =  40000
     Max angular momentum in pseudopotentials (lmaxx) =  3
     file Pd.pbe-spn-kjpaw_psl.1.0.0.UPF: wavefunction(s)  4S 5S 4D renormalized

     Subspace diagonalization in iterative solution of the eigenvalue problem:
     one sub-group per band group will be used

     Found symmetry operation: I + (  0.2500  0.2500  0.0000)
     This is a supercell, fractional translations are disabled
     Message from routine setup:
     using ibrav=0 with symmetry is DISCOURAGED, use correct ibrav instead

     bravais-lattice index     =            0
     lattice parameter (alat)  =      14.8394  a.u.
     unit-cell volume          =    3267.7647 (a.u.)^3
     number of atoms/cell      =           32
     number of atomic types    =            1
     number of electrons       =       576.00
     number of Kohn-Sham states=          346
     kinetic-energy cutoff     =      71.0000  Ry
     charge density cutoff     =     430.0000  Ry
     scf convergence threshold =      1.0E-08
     mixing beta               =       0.3000
     number of iterations used =           10  plain     mixing
     energy convergence thresh.=      1.0E-04
     force convergence thresh. =      1.0E-03
     press convergence thresh. =      5.0E-01
     Exchange-correlation= SLA  PW   PBX  PBC
                           (   1   4   3   4   0   0   0)
     nstep                     =           60

     celldm(1)=  14.839420  celldm(2)=   0.000000  celldm(3)=   0.000000
     celldm(4)=   0.000000  celldm(5)=   0.000000  celldm(6)=   0.000000

     crystal axes: (cart. coord. in units of alat)
               a(1) = (   1.000000   0.000000   0.000000 )
               a(2) = (   0.000000   1.000000   0.000000 )
               a(3) = (   0.000000   0.000000   1.000000 )

     reciprocal axes: (cart. coord. in units 2 pi/alat)
               b(1) = (  1.000000  0.000000  0.000000 )
               b(2) = (  0.000000  1.000000  0.000000 )
               b(3) = (  0.000000  0.000000  1.000000 )

     PseudoPot. # 1 for Pd read from file:
     /rds/homes/b/bxp912/pp/Pd.pbe-spn-kjpaw_psl.1.0.0.UPF
     MD5 check sum: 790f2ebce206edfd9790dcb9844eca51
     Pseudo is Projector augmented-wave + core cor, Zval = 18.0
     Generated using &quot;atomic&quot; code by A. Dal Corso  v.6.3
     Shape of augmentation charge: PSQ
     Using radial grid of 1235 points,  6 beta functions with:
                l(1) =   0
                l(2) =   0
                l(3) =   1
                l(4) =   1
                l(5) =   2
                l(6) =   2
     Q(r) pseudized with 0 coefficients

     atomic species   valence    mass     pseudopotential
        Pd            18.00   106.42000     Pd( 1.00)

     48 Sym. Ops., with inversion, found

   Cartesian axes

     site n.     atom                  positions (alat units)
         1           Pd  tau(   1) = (   0.0000000   0.0000000   0.0000000  )
         2           Pd  tau(   2) = (   0.2500000   0.2500000   0.0000000  )
         3           Pd  tau(   3) = (   0.2500000   0.0000000   0.2500000  )
         4           Pd  tau(   4) = (   0.0000000   0.2500000   0.2500000  )
         5           Pd  tau(   5) = (   0.0000000   0.0000000   0.5000000  )
         6           Pd  tau(   6) = (   0.2500000   0.2500000   0.5000000  )
         7           Pd  tau(   7) = (   0.2500000   0.0000000   0.7500000  )
         8           Pd  tau(   8) = (   0.0000000   0.2500000   0.7500000  )
         9           Pd  tau(   9) = (   0.0000000   0.5000000   0.0000000  )
        10           Pd  tau(  10) = (   0.2500000   0.7500000   0.0000000  )
        11           Pd  tau(  11) = (   0.2500000   0.5000000   0.2500000  )
        12           Pd  tau(  12) = (   0.0000000   0.7500000   0.2500000  )
        13           Pd  tau(  13) = (   0.0000000   0.5000000   0.5000000  )
        14           Pd  tau(  14) = (   0.2500000   0.7500000   0.5000000  )
        15           Pd  tau(  15) = (   0.2500000   0.5000000   0.7500000  )
        16           Pd  tau(  16) = (   0.0000000   0.7500000   0.7500000  )
        17           Pd  tau(  17) = (   0.5000000   0.0000000   0.0000000  )
        18           Pd  tau(  18) = (   0.7500000   0.2500000   0.0000000  )
        19           Pd  tau(  19) = (   0.7500000   0.0000000   0.2500000  )
        20           Pd  tau(  20) = (   0.5000000   0.2500000   0.2500000  )
        21           Pd  tau(  21) = (   0.5000000   0.0000000   0.5000000  )
        22           Pd  tau(  22) = (   0.7500000   0.2500000   0.5000000  )
        23           Pd  tau(  23) = (   0.7500000   0.0000000   0.7500000  )
        24           Pd  tau(  24) = (   0.5000000   0.2500000   0.7500000  )
        25           Pd  tau(  25) = (   0.5000000   0.5000000   0.0000000  )
        26           Pd  tau(  26) = (   0.7500000   0.7500000   0.0000000  )
        27           Pd  tau(  27) = (   0.7500000   0.5000000   0.2500000  )
        28           Pd  tau(  28) = (   0.5000000   0.7500000   0.2500000  )
        29           Pd  tau(  29) = (   0.5000000   0.5000000   0.5000000  )
        30           Pd  tau(  30) = (   0.7500000   0.7500000   0.5000000  )
        31           Pd  tau(  31) = (   0.7500000   0.5000000   0.7500000  )
        32           Pd  tau(  32) = (   0.5000000   0.7500000   0.7500000  )

     number of k points=    35  Marzari-Vanderbilt smearing, width (Ry)=  0.0400
                       cart. coord. in units 2pi/alat
        k(    1) = (   0.0555556   0.0555556   0.0555556), wk =   0.0219479
        k(    2) = (   0.0555556   0.0555556   0.1666667), wk =   0.0658436
        k(    3) = (   0.0555556   0.0555556   0.2777778), wk =   0.0658436
        k(    4) = (   0.0555556   0.0555556   0.3888889), wk =   0.0658436
        k(    5) = (   0.0555556   0.0555556  -0.5000000), wk =   0.0329218
        k(    6) = (   0.0555556   0.1666667   0.1666667), wk =   0.0658436
        k(    7) = (   0.0555556   0.1666667   0.2777778), wk =   0.1316872
        k(    8) = (   0.0555556   0.1666667   0.3888889), wk =   0.1316872
        k(    9) = (   0.0555556   0.1666667  -0.5000000), wk =   0.0658436
        k(   10) = (   0.0555556   0.2777778   0.2777778), wk =   0.0658436
        k(   11) = (   0.0555556   0.2777778   0.3888889), wk =   0.1316872
        k(   12) = (   0.0555556   0.2777778  -0.5000000), wk =   0.0658436
        k(   13) = (   0.0555556   0.3888889   0.3888889), wk =   0.0658436
        k(   14) = (   0.0555556   0.3888889  -0.5000000), wk =   0.0658436
        k(   15) = (   0.0555556  -0.5000000  -0.5000000), wk =   0.0164609
        k(   16) = (   0.1666667   0.1666667   0.1666667), wk =   0.0219479
        k(   17) = (   0.1666667   0.1666667   0.2777778), wk =   0.0658436
        k(   18) = (   0.1666667   0.1666667   0.3888889), wk =   0.0658436
        k(   19) = (   0.1666667   0.1666667  -0.5000000), wk =   0.0329218
        k(   20) = (   0.1666667   0.2777778   0.2777778), wk =   0.0658436
        k(   21) = (   0.1666667   0.2777778   0.3888889), wk =   0.1316872
        k(   22) = (   0.1666667   0.2777778  -0.5000000), wk =   0.0658436
        k(   23) = (   0.1666667   0.3888889   0.3888889), wk =   0.0658436
        k(   24) = (   0.1666667   0.3888889  -0.5000000), wk =   0.0658436
        k(   25) = (   0.1666667  -0.5000000  -0.5000000), wk =   0.0164609
        k(   26) = (   0.2777778   0.2777778   0.2777778), wk =   0.0219479
        k(   27) = (   0.2777778   0.2777778   0.3888889), wk =   0.0658436
        k(   28) = (   0.2777778   0.2777778  -0.5000000), wk =   0.0329218
        k(   29) = (   0.2777778   0.3888889   0.3888889), wk =   0.0658436
        k(   30) = (   0.2777778   0.3888889  -0.5000000), wk =   0.0658436
        k(   31) = (   0.2777778  -0.5000000  -0.5000000), wk =   0.0164609
        k(   32) = (   0.3888889   0.3888889   0.3888889), wk =   0.0219479
        k(   33) = (   0.3888889   0.3888889  -0.5000000), wk =   0.0329218
        k(   34) = (   0.3888889  -0.5000000  -0.5000000), wk =   0.0164609
        k(   35) = (  -0.5000000  -0.5000000  -0.5000000), wk =   0.0027435

     Check: negative core charge=   -0.000002

     Initial potential from superposition of free atoms

     starting charge  575.98776, renormalised to  576.00000
     Starting wfcs are  320 randomized atomic wfcs +   26 random wfcs
     Checking if some PAW data can be deallocated...

     Self-consistent Calculation

     iteration #  1     ecut=    71.00 Ry     beta= 0.30
     Davidson diagonalization with overlap
     ethr =  1.00E-02,  avg # of iterations =  3.0

     Threshold (ethr) on eigenvalues was too large:
     Diagonalizing with lowered threshold

     Davidson diagonalization with overlap
     ethr =  8.87E-05,  avg # of iterations =  3.7

     total energy              =  -16384.90505684 Ry
     estimated scf accuracy    <       0.47442218 Ry

[...]

     iteration #  5     ecut=    71.00 Ry     beta= 0.30
     Davidson diagonalization with overlap
     c_bands:  1 eigenvalues not converged
     ethr =  4.51E-06,  avg # of iterations =  3.5

[...]

     End of self-consistent calculation

          k = 0.0556 0.0556 0.0556 ( 32996 PWs)   bands (ev):

   -64.8702 -64.8410 -64.8410 -64.8410 -64.8355 -64.8355 -64.8355 -64.8251
   -64.8251 -64.8251 -64.8225 -64.8221 -64.8221 -64.8221 -64.8221 -64.8221
   -64.8221 -64.8220 -64.8220 -64.8220 -64.8195 -64.8195 -64.8195 -64.8063
   -64.8063 -64.8063 -64.8063 -64.8063 -64.8063 -64.8063 -64.8063 -64.8063
   -30.7546 -30.7546 -30.7546 -30.7528 -30.7342 -30.7341 -30.7341 -30.6563
   -30.6563 -30.6563 -30.6520 -30.6520 -30.6520 -30.6519 -30.6519 -30.6519
   -30.6441 -30.6441 -30.6441 -30.6388 -30.6388 -30.6388 -30.6388 -30.6388
   -30.6388 -30.6202 -30.6202 -30.6202 -30.6202 -30.6202 -30.6202 -30.5791
   -30.5791 -30.5791 -30.5546 -30.5546 -30.5546 -30.5485 -30.5485 -30.5485
   -30.5391 -30.5391 -30.5391 -30.5391 -30.5391 -30.5391 -30.5241 -30.5241
   -30.5241 -30.5232 -30.5232 -30.5232 -30.5232 -30.5232 -30.5232 -30.5227
   -30.5227 -30.5227 -30.5211 -30.5211 -30.5211 -30.4576 -30.4576 -30.4576
   -30.4574 -30.4574 -30.4574 -30.4452 -30.4452 -30.4452 -30.4450 -30.4450
   -30.4450 -30.4416 -30.4416 -30.4416 -30.4371 -30.4371 -30.4371 -30.4365
   -30.4365 -30.4365 -30.4365 -30.4365 -30.4365 -30.4360 -30.4360 -30.4360
   -30.4350 -30.4350 -30.4293 -30.4293 -30.4293 -30.3837 -30.3812 -30.3812
    12.2943  14.0509  14.0509  14.0509  14.1197  14.1334  14.1334  14.1334
    14.3238  14.3238  14.3238  14.3262  14.3262  14.3262  14.5188  14.5188
    14.5188  15.0643  15.0643  15.0643  15.0643  15.0643  15.0643  15.2182
    15.2182  15.2182  15.3686  15.3686  15.3686  15.4049  15.4049  15.4049
    15.4511  15.4511  15.4511  15.4511  15.4511  15.4511  15.4530  15.4530
    15.4530  15.7950  15.7950  15.7950  15.7950  15.7950  15.7950  15.9023
[...]
Pd            0.5000000000        0.0000000000        0.5000000000
Pd            0.7500000528        0.2499999472        0.5000000000
Pd            0.7499998455        0.0000000000        0.7499998455
Pd            0.5000000000        0.2499999472        0.7500000528
Pd            0.5000000000        0.5000000000        0.0000000000
Pd            0.7499998455        0.7499998455       -0.0000000000
Pd            0.7500000528        0.5000000000        0.2499999472
Pd            0.5000000000        0.7500000528        0.2499999472
Pd            0.5000000000        0.5000000000        0.5000000000
Pd            0.7500000528        0.7500000528        0.5000000000
Pd            0.7500000528        0.5000000000        0.7500000528
Pd            0.5000000000        0.7500000528        0.7500000528
End final coordinates

     Writing output data file /scratch/pdrelax.save/

     Final scf calculation at the relaxed structure.
     The G-vectors are recalculated for the final unit cell
     Results may differ from those at the preceding step.

     bravais-lattice index     =            0
     lattice parameter (alat)  =      14.8394  a.u.
     unit-cell volume          =    3271.0039 (a.u.)^3
     number of atoms/cell      =           32
     number of atomic types    =            1
     number of electrons       =       576.00
     number of Kohn-Sham states=          346
     kinetic-energy cutoff     =      71.0000  Ry
     charge density cutoff     =     430.0000  Ry
     scf convergence threshold =      1.0E-08
     mixing beta               =       0.3000
     number of iterations used =           10  plain     mixing
     press convergence thresh. =      5.0E-01
     Exchange-correlation= SLA  PW   PBX  PBC
                           (   1   4   3   4   0   0   0)

     celldm(1)=  14.839420  celldm(2)=   0.000000  celldm(3)=   0.000000
     celldm(4)=   0.000000  celldm(5)=   0.000000  celldm(6)=   0.000000

     crystal axes: (cart. coord. in units of alat)
               a(1) = (   1.000330   0.000000   0.000000 )
               a(2) = (   0.000000   1.000330   0.000000 )
               a(3) = (   0.000000   0.000000   1.000330 )

     reciprocal axes: (cart. coord. in units 2 pi/alat)
               b(1) = (  0.999670  0.000000  0.000000 )
               b(2) = (  0.000000  0.999670  0.000000 )
               b(3) = (  0.000000  0.000000  0.999670 )

     PseudoPot. # 1 for Pd read from file:
     /rds/homes/b/bxp912/pp/Pd.pbe-spn-kjpaw_psl.1.0.0.UPF
     MD5 check sum: 790f2ebce206edfd9790dcb9844eca51
     Pseudo is Projector augmented-wave + core cor, Zval = 18.0
     Generated using &quot;atomic&quot; code by A. Dal Corso  v.6.3
     Shape of augmentation charge: PSQ
     Using radial grid of 1235 points,  6 beta functions with:
                l(1) =   0
                l(2) =   0
                l(3) =   1
                l(4) =   1
                l(5) =   2
                l(6) =   2
     Q(r) pseudized with 0 coefficients

     atomic species   valence    mass     pseudopotential
        Pd            18.00   106.42000     Pd( 1.00)

     48 Sym. Ops., with inversion, found

   Cartesian axes

     site n.     atom                  positions (alat units)
         1           Pd  tau(   1) = (   0.0000000   0.0000000   0.0000000  )
         2           Pd  tau(   2) = (   0.2500827   0.2500827  -0.0000000  )
         3           Pd  tau(   3) = (   0.2500827   0.0000000   0.2500827  )
         4           Pd  tau(   4) = (   0.0000000   0.2500827   0.2500827  )
         5           Pd  tau(   5) = (   0.0000000   0.0000000   0.5001652  )
         6           Pd  tau(   6) = (   0.2500825   0.2500825   0.5001652  )
         7           Pd  tau(   7) = (   0.2500827   0.0000000   0.7502476  )
         8           Pd  tau(   8) = (  -0.0000000   0.2500827   0.7502476  )
         9           Pd  tau(   9) = (   0.0000000   0.5001652   0.0000000  )
        10           Pd  tau(  10) = (   0.2500827   0.7502476   0.0000000  )
        11           Pd  tau(  11) = (   0.2500825   0.5001652   0.2500825  )
        12           Pd  tau(  12) = (   0.0000000   0.7502476   0.2500827  )
        13           Pd  tau(  13) = (   0.0000000   0.5001652   0.5001652  )
        14           Pd  tau(  14) = (   0.2500825   0.7502478   0.5001652  )
        15           Pd  tau(  15) = (   0.2500825   0.5001652   0.7502478  )
        16           Pd  tau(  16) = (  -0.0000000   0.7502476   0.7502476  )
        17           Pd  tau(  17) = (   0.5001652   0.0000000   0.0000000  )
        18           Pd  tau(  18) = (   0.7502476   0.2500827   0.0000000  )
        19           Pd  tau(  19) = (   0.7502476   0.0000000   0.2500827  )
        20           Pd  tau(  20) = (   0.5001652   0.2500825   0.2500825  )
        21           Pd  tau(  21) = (   0.5001652   0.0000000   0.5001652  )
        22           Pd  tau(  22) = (   0.7502478   0.2500825   0.5001652  )
        23           Pd  tau(  23) = (   0.7502476   0.0000000   0.7502476  )
        24           Pd  tau(  24) = (   0.5001652   0.2500825   0.7502478  )
        25           Pd  tau(  25) = (   0.5001652   0.5001652   0.0000000  )
        26           Pd  tau(  26) = (   0.7502476   0.7502476  -0.0000000  )
        27           Pd  tau(  27) = (   0.7502478   0.5001652   0.2500825  )
        28           Pd  tau(  28) = (   0.5001652   0.7502478   0.2500825  )
        29           Pd  tau(  29) = (   0.5001652   0.5001652   0.5001652  )
        30           Pd  tau(  30) = (   0.7502478   0.7502478   0.5001652  )
        31           Pd  tau(  31) = (   0.7502478   0.5001652   0.7502478  )
        32           Pd  tau(  32) = (   0.5001652   0.7502478   0.7502478  )

     number of k points=    35  Marzari-Vanderbilt smearing, width (Ry)=  0.0400
                       cart. coord. in units 2pi/alat
        k(    1) = (   0.0555372   0.0555372   0.0555372), wk =   0.0219479
        k(    2) = (   0.0555372   0.0555372   0.1666116), wk =   0.0658436
        k(    3) = (   0.0555372   0.0555372   0.2776861), wk =   0.0658436
        k(    4) = (   0.0555372   0.0555372   0.3887605), wk =   0.0658436
        k(    5) = (   0.0555372   0.0555372  -0.4998349), wk =   0.0329218
        k(    6) = (   0.0555372   0.1666116   0.1666116), wk =   0.0658436
        k(    7) = (   0.0555372   0.1666116   0.2776861), wk =   0.1316872
        k(    8) = (   0.0555372   0.1666116   0.3887605), wk =   0.1316872
        k(    9) = (   0.0555372   0.1666116  -0.4998349), wk =   0.0658436
        k(   10) = (   0.0555372   0.2776861   0.2776861), wk =   0.0658436
        k(   11) = (   0.0555372   0.2776861   0.3887605), wk =   0.1316872
        k(   12) = (   0.0555372   0.2776861  -0.4998349), wk =   0.0658436
        k(   13) = (   0.0555372   0.3887605   0.3887605), wk =   0.0658436
        k(   14) = (   0.0555372   0.3887605  -0.4998349), wk =   0.0658436
        k(   15) = (   0.0555372  -0.4998349  -0.4998349), wk =   0.0164609
        k(   16) = (   0.1666116   0.1666116   0.1666116), wk =   0.0219479
        k(   17) = (   0.1666116   0.1666116   0.2776861), wk =   0.0658436
        k(   18) = (   0.1666116   0.1666116   0.3887605), wk =   0.0658436
        k(   19) = (   0.1666116   0.1666116  -0.4998349), wk =   0.0329218
        k(   20) = (   0.1666116   0.2776861   0.2776861), wk =   0.0658436
        k(   21) = (   0.1666116   0.2776861   0.3887605), wk =   0.1316872
        k(   22) = (   0.1666116   0.2776861  -0.4998349), wk =   0.0658436
        k(   23) = (   0.1666116   0.3887605   0.3887605), wk =   0.0658436
        k(   24) = (   0.1666116   0.3887605  -0.4998349), wk =   0.0658436
        k(   25) = (   0.1666116  -0.4998349  -0.4998349), wk =   0.0164609
        k(   26) = (   0.2776861   0.2776861   0.2776861), wk =   0.0219479
        k(   27) = (   0.2776861   0.2776861   0.3887605), wk =   0.0658436
        k(   28) = (   0.2776861   0.2776861  -0.4998349), wk =   0.0329218
        k(   29) = (   0.2776861   0.3887605   0.3887605), wk =   0.0658436
        k(   30) = (   0.2776861   0.3887605  -0.4998349), wk =   0.0658436
        k(   31) = (   0.2776861  -0.4998349  -0.4998349), wk =   0.0164609
        k(   32) = (   0.3887605   0.3887605   0.3887605), wk =   0.0219479
        k(   33) = (   0.3887605   0.3887605  -0.4998349), wk =   0.0329218
        k(   34) = (   0.3887605  -0.4998349  -0.4998349), wk =   0.0164609
        k(   35) = (  -0.4998349  -0.4998349  -0.4998349), wk =   0.0027435

     Check: negative core charge=   -0.000002

     Initial potential from superposition of free atoms

     starting charge  575.98776, renormalised to  576.00000
     Starting wfcs are  320 randomized atomic wfcs +   26 random wfcs
     Checking if some PAW data can be deallocated...

     Self-consistent Calculation

     iteration #  1     ecut=    71.00 Ry     beta= 0.30
     Davidson diagonalization with overlap
     c_bands:  2 eigenvalues not converged
     c_bands:  1 eigenvalues not converged
     c_bands:  2 eigenvalues not converged
     c_bands:  2 eigenvalues not converged
     c_bands:  2 eigenvalues not converged
     ethr =  1.00E-06,  avg # of iterations = 14.6

[...]

     total energy              =  -16384.95847831 Ry
     estimated scf accuracy    <       0.00000019 Ry

     iteration # 14     ecut=    71.00 Ry     beta= 0.30
     Davidson diagonalization with overlap
     ethr =  3.26E-11,  avg # of iterations =  2.6

     End of self-consistent calculation

[...]

          k = 0.3888-0.4998-0.4998 ( 33040 PWs)   bands (ev):

[...]

          k =-0.4998-0.4998-0.4998 ( 32968 PWs)   bands (ev):

   -64.8693 -64.8693 -64.8693 -64.8693 -64.8693 -64.8693 -64.8693 -64.8693
   -64.8373 -64.8373 -64.8373 -64.8373 -64.8373 -64.8373 -64.8373 -64.8373
   -64.8373 -64.8373 -64.8373 -64.8373 -64.8373 -64.8373 -64.8373 -64.8373
   -64.8373 -64.8373 -64.8373 -64.8373 -64.8373 -64.8373 -64.8373 -64.8372
   -30.7151 -30.7151 -30.7151 -30.7151 -30.7151 -30.7151 -30.7151 -30.7151
   -30.7151 -30.7151 -30.7151 -30.7151 -30.7151 -30.7151 -30.7151 -30.7151
   -30.7151 -30.7151 -30.7151 -30.7151 -30.7151 -30.7151 -30.7151 -30.7151
   -30.5930 -30.5930 -30.5930 -30.5930 -30.5930 -30.5930 -30.5930 -30.5930
   -30.5558 -30.5558 -30.5558 -30.5558 -30.5558 -30.5558 -30.5558 -30.5558
   -30.5558 -30.5558 -30.5558 -30.5558 -30.5558 -30.5558 -30.5558 -30.5558
   -30.5558 -30.5558 -30.5558 -30.5558 -30.5558 -30.5558 -30.5558 -30.5558
   -30.5017 -30.5017 -30.5017 -30.5017 -30.5017 -30.5017 -30.5017 -30.5017
   -30.5017 -30.5017 -30.5017 -30.5017 -30.5017 -30.5017 -30.5017 -30.5017
   -30.5017 -30.5017 -30.5017 -30.5017 -30.5017 -30.5017 -30.5017 -30.5017
   -30.4315 -30.4315 -30.4315 -30.4315 -30.4315 -30.4315 -30.4315 -30.4315
   -30.4315 -30.4315 -30.4315 -30.4315 -30.4315 -30.4315 -30.4315 -30.4315
    13.9100  13.9100  13.9100  13.9100  13.9100  13.9100  13.9100  13.9100
    14.7584  14.7584  14.7584  14.7584  14.7584  14.7584  14.7584  14.7584
    14.7584  14.7584  14.7584  14.7584  14.7584  14.7584  14.7584  14.7584
    14.7584  14.7584  14.7584  14.7584  14.7584  14.7584  14.7584  14.7584
    15.5140  15.5140  15.5140  15.5140  15.5140  15.5140  15.5140  15.5140
    15.5140  15.5140  15.5140  15.5140  15.5140  15.5140  15.5140  15.5140
    15.5140  15.5140  15.5140  15.5140  15.5140  15.5140  15.5140  15.5140
    16.4442  16.4442  16.4442  16.4442  16.4442  16.4442  16.4442  16.4442
    16.7524  16.7524  16.7524  16.7524  16.7524  16.7524  16.7524  16.7524
    16.7524  16.7524  16.7524  16.7524  16.7524  16.7524  16.7524  16.7524
    16.9377  16.9377  16.9377  16.9377  16.9377  16.9377  16.9377  16.9377
    16.9377  16.9377  16.9377  16.9377  16.9377  16.9377  16.9377  16.9377
    16.9377  16.9377  16.9377  16.9377  16.9377  16.9377  16.9377  16.9377
    17.6555  17.6555  17.6555  17.6555  17.6555  17.6555  17.6555  17.6555
    17.6555  17.6555  17.6555  17.6555  17.6555  17.6555  17.6555  17.6555
    17.6555  17.6555  17.6555  17.6555  17.6555  17.6555  17.6555  17.6555
    18.1607  18.1607  18.1607  18.1607  18.1607  18.1607  18.1607  18.1607
    18.1607  18.1607  18.1607  18.1607  18.1607  18.1607  18.1607  18.1607
    19.2515  19.2515  19.2515  19.2515  19.2515  19.2515  19.2515  19.2515
    19.2515  19.2515  19.2515  19.2515  19.2515  19.2515  19.2515  19.2515
    19.2515  19.2515  19.2515  19.2515  19.2515  19.2515  19.2515  19.2515
    22.8255  22.8255  22.8255  22.8255  22.8255  22.8255  22.8255  22.8255
    22.8255  22.8255  22.8255  22.8255  22.8255  22.8255  22.8255  22.8255
    22.8255  22.8255  22.8255  22.8255  22.8255  22.8256  22.8256  22.8256
    28.2678  28.2678  28.2678  28.2678  28.2678  28.2678  28.2678  28.2678
    28.2678  28.2678  28.2678  28.2678  28.2678  28.2678  28.2679  28.2679
    28.2679  28.2679  28.2679  28.2679  28.2679  28.2679  28.2679  28.2679
    33.4967  33.4967

     the Fermi energy is    19.2726 ev

!    total energy              =  -16384.95847835 Ry

     total all-electron energy =   -322945.812185 Ry
     estimated scf accuracy    <          4.1E-09 Ry
     smearing contrib. (-TS)   =       0.03317998 Ry
     internal energy E=F+TS    =  -16384.99165832 Ry

     The total energy is F=E-TS. E is the sum of the following terms:
     one-electron contribution =   -2487.79849886 Ry
     hartree contribution      =    1661.32271182 Ry
     xc contribution           =    -986.50624512 Ry
     ewald contribution        =   -6404.58366750 Ry
     one-center paw contrib.   =   -8167.42595867 Ry

     convergence has been achieved in  14 iterations

     Forces acting on atoms (cartesian axes, Ry/au):

     atom    1 type  1   force =     0.00000000    0.00000000    0.00000000
     atom    2 type  1   force =     0.00000692    0.00000692    0.00000000
     atom    3 type  1   force =     0.00000692    0.00000000    0.00000692
     atom    4 type  1   force =     0.00000000    0.00000692    0.00000692
     atom    5 type  1   force =     0.00000000    0.00000000    0.00000000
     atom    6 type  1   force =     0.00001635    0.00001635    0.00000000
     atom    7 type  1   force =     0.00000692    0.00000000   -0.00000692
     atom    8 type  1   force =     0.00000000    0.00000692   -0.00000692
     atom    9 type  1   force =     0.00000000    0.00000000    0.00000000
     atom   10 type  1   force =     0.00000692   -0.00000692    0.00000000
     atom   11 type  1   force =     0.00001635    0.00000000    0.00001635
     atom   12 type  1   force =     0.00000000   -0.00000692    0.00000692
     atom   13 type  1   force =     0.00000000    0.00000000    0.00000000
     atom   14 type  1   force =     0.00001635   -0.00001635    0.00000000
     atom   15 type  1   force =     0.00001635    0.00000000   -0.00001635
     atom   16 type  1   force =     0.00000000   -0.00000692   -0.00000692
     atom   17 type  1   force =     0.00000000    0.00000000    0.00000000
     atom   18 type  1   force =    -0.00000692    0.00000692    0.00000000
     atom   19 type  1   force =    -0.00000692    0.00000000    0.00000692
     atom   20 type  1   force =     0.00000000    0.00001635    0.00001635
     atom   21 type  1   force =     0.00000000    0.00000000    0.00000000
     atom   22 type  1   force =    -0.00001635    0.00001635    0.00000000
     atom   23 type  1   force =    -0.00000692    0.00000000   -0.00000692
     atom   24 type  1   force =     0.00000000    0.00001635   -0.00001635
     atom   25 type  1   force =     0.00000000    0.00000000    0.00000000
     atom   26 type  1   force =    -0.00000692   -0.00000692    0.00000000
     atom   27 type  1   force =    -0.00001635    0.00000000    0.00001635
     atom   28 type  1   force =     0.00000000   -0.00001635    0.00001635
     atom   29 type  1   force =     0.00000000    0.00000000    0.00000000
     atom   30 type  1   force =    -0.00001635   -0.00001635    0.00000000
     atom   31 type  1   force =    -0.00001635    0.00000000   -0.00001635
     atom   32 type  1   force =     0.00000000   -0.00001635   -0.00001635

     Total force =     0.000087     Total SCF correction =     0.000576
     SCF correction compared to forces is large: reduce conv_thr to get better values

     Computing stress (Cartesian axis) and pressure

          total   stress  (Ry/bohr**3)                   (kbar)     P=        0.14
   0.00000092   0.00000000   0.00000000            0.14        0.00        0.00
   0.00000000   0.00000092   0.00000000            0.00        0.14        0.00
   0.00000000   0.00000000   0.00000092            0.00        0.00        0.14

     Writing output data file /scratch/pdrelax.save/

     General routines

     Parallel routines

   This run was terminated on:  10:49: 0  14Mar2022

   JOB DONE.