     Program PWSCF v.6.3 starts on 16Jun2020 at  4:53:30

     R & G space division:  proc/nbgrp/npool/nimage =      20
     Reading input from wd/relax/relax.in

     Current dimensions of program PWSCF are:
     Max number of different atomic species (ntypx) = 10
     Max number of k-points (npk) =  40000
     Max angular momentum in pseudopotentials (lmaxx) =  3
               file Fe.pbe-spn-kjpaw_psl.1.0.0.UPF: wavefunction(s)  3P 3D renormalized
               file Fe.pbe-spn-kjpaw_psl.1.0.0.UPF: wavefunction(s)  3P 3D renormalized
               file Fe.pbe-spn-kjpaw_psl.1.0.0.UPF: wavefunction(s)  3P 3D renormalized
               file Fe.pbe-spn-kjpaw_psl.1.0.0.UPF: wavefunction(s)  3P 3D renormalized

     Subspace diagonalization in iterative solution of the eigenvalue problem:
     a serial algorithm will be used

     Found symmetry operation: I + (  0.0000  0.0000 -0.5000)
     This is a supercell, fractional translations are disabled

     bravais-lattice index     =            0
     lattice parameter (alat)  =      12.9571  a.u.
     unit-cell volume          =    2287.6592 (a.u.)^3
     number of atoms/cell      =           32
     number of atomic types    =            4
     number of electrons       =       512.00
     number of Kohn-Sham states=          307
     kinetic-energy cutoff     =      71.0000  Ry
     charge density cutoff     =     430.0000  Ry
     convergence threshold     =      1.0E-06
     mixing beta               =       0.1000
     number of iterations used =           10  plain     mixing
     Exchange-correlation      = SLA PW PBX PBC ( 1  4  3  4 0 0)
     nstep                     =           40

     celldm(1)=  12.957143  celldm(2)=   0.000000  celldm(3)=   0.000000
     celldm(4)=   0.000000  celldm(5)=   0.000000  celldm(6)=   0.000000

     crystal axes: (cart. coord. in units of alat)
               a(1) = (   1.000000   0.000000   0.000000 )
               a(2) = (   0.000000   1.051631   0.000000 )
               a(3) = (   0.000000   0.000000   1.000000 )

     reciprocal axes: (cart. coord. in units 2 pi/alat)
               b(1) = (  1.000000  0.000000  0.000000 )
               b(2) = (  0.000000  0.950903  0.000000 )
               b(3) = (  0.000000  0.000000  1.000000 )

     PseudoPot. # 1 for Fe read from file:
     /rds/homes/b/bxp912/pp/Fe.pbe-spn-kjpaw_psl.1.0.0.UPF
     MD5 check sum: 42f43b795421b414b0dc916aa790dbcb
     Pseudo is Projector augmented-wave + core cor, Zval = 16.0
     Generated using "atomic" code by A. Dal Corso v.6.3
     Shape of augmentation charge: PSQ
     Using radial grid of 1191 points,  6 beta functions with:
                l(1) =   0
                l(2) =   0
                l(3) =   1
                l(4) =   1
                l(5) =   2
                l(6) =   2
     Q(r) pseudized with 0 coefficients

[...]

     atomic species   valence    mass     pseudopotential
        Fe1           16.00    55.84500     Fe( 1.00)
        Fe2           16.00    55.84500     Fe( 1.00)
        Fe3           16.00    55.84500     Fe( 1.00)
        Fe4           16.00    55.84500     Fe( 1.00)

     Starting magnetic structure
     atomic species   magnetization
        Fe1          0.100
        Fe2         -0.100
        Fe3          0.100
        Fe4         -0.100

      8 Sym. Ops., with inversion, found

   Cartesian axes

     site n.     atom                  positions (alat units)
         1           Fe1 tau(   1) = (   0.0000000   0.0000000   0.0000000  )
         2           Fe2 tau(   2) = (   0.2500000   0.2629079   0.0000000  )
         3           Fe3 tau(   3) = (   0.2500000   0.0000000   0.2500000  )
         4           Fe4 tau(   4) = (   0.0000000   0.2629079   0.2500000  )
         5           Fe1 tau(   5) = (   0.0000000   0.0000000   0.5000000  )
         6           Fe2 tau(   6) = (   0.2500000   0.2629079   0.5000000  )
         7           Fe3 tau(   7) = (   0.2500000   0.0000000   0.7500000  )
         8           Fe4 tau(   8) = (   0.0000000   0.2629079   0.7500000  )
         9           Fe1 tau(   9) = (   0.0000000   0.5258157   0.0000000  )
        10           Fe2 tau(  10) = (   0.2500000   0.7887236   0.0000000  )
        11           Fe3 tau(  11) = (   0.2500000   0.5258157   0.2500000  )
        12           Fe4 tau(  12) = (   0.0000000   0.7887236   0.2500000  )
        13           Fe1 tau(  13) = (   0.0000000   0.5258157   0.5000000  )
        14           Fe2 tau(  14) = (   0.2500000   0.7887236   0.5000000  )
        15           Fe3 tau(  15) = (   0.2500000   0.5258157   0.7500000  )
        16           Fe4 tau(  16) = (   0.0000000   0.7887236   0.7500000  )
        17           Fe1 tau(  17) = (   0.5000000   0.0000000   0.0000000  )
        18           Fe2 tau(  18) = (   0.7500000   0.2629079   0.0000000  )
        19           Fe3 tau(  19) = (   0.7500000   0.0000000   0.2500000  )
        20           Fe4 tau(  20) = (   0.5000000   0.2629079   0.2500000  )
        21           Fe1 tau(  21) = (   0.5000000   0.0000000   0.5000000  )
        22           Fe2 tau(  22) = (   0.7500000   0.2629079   0.5000000  )
        23           Fe3 tau(  23) = (   0.7500000   0.0000000   0.7500000  )
        24           Fe4 tau(  24) = (   0.5000000   0.2629079   0.7500000  )
        25           Fe1 tau(  25) = (   0.5000000   0.5258157   0.0000000  )
        26           Fe2 tau(  26) = (   0.7500000   0.7887236   0.0000000  )
        27           Fe3 tau(  27) = (   0.7500000   0.5258157   0.2500000  )
        28           Fe4 tau(  28) = (   0.5000000   0.7887236   0.2500000  )
        29           Fe1 tau(  29) = (   0.5000000   0.5258157   0.5000000  )
        30           Fe2 tau(  30) = (   0.7500000   0.7887236   0.5000000  )
        31           Fe3 tau(  31) = (   0.7500000   0.5258157   0.7500000  )
        32           Fe4 tau(  32) = (   0.5000000   0.7887236   0.7500000  )

     number of k points=   125  Marzari-Vanderbilt smearing, width (Ry)=  0.0400

     Number of k-points >= 100: set verbosity='high' to print them.

     Check: negative/imaginary core charge=   -0.000006    0.000000

     Initial potential from superposition of free atoms

     starting charge  511.98600, renormalised to  512.00000
     Starting wfcs are  320 randomized atomic wfcs
     Checking if some PAW data can be deallocated...

     Self-consistent Calculation

     iteration #  1     ecut=    71.00 Ry     beta= 0.10
     Davidson diagonalization with overlap
     ethr =  1.00E-02,  avg # of iterations =  3.6

     Threshold (ethr) on eigenvalues was too large:
     Diagonalizing with lowered threshold

     Davidson diagonalization with overlap
     ethr =  3.18E-04,  avg # of iterations =  4.0

     total energy              =  -10536.43345197 Ry
     Harris-Foulkes estimate   =  -10536.77456643 Ry
     estimated scf accuracy    <       1.87831963 Ry

     total magnetization       =     0.23 Bohr mag/cell
     absolute magnetization    =    44.20 Bohr mag/cell

[...]

     Magnetic moment per site:
     atom:    1    charge:   14.3990    magn:    1.4901    constr:    0.0000
     atom:    2    charge:   14.3987    magn:   -1.4901    constr:    0.0000
     atom:    3    charge:   14.3980    magn:    1.4928    constr:    0.0000
     atom:    4    charge:   14.3983    magn:   -1.4942    constr:    0.0000
     atom:    5    charge:   14.3989    magn:    1.4909    constr:    0.0000
     atom:    6    charge:   14.3986    magn:   -1.4896    constr:    0.0000
     atom:    7    charge:   14.3980    magn:    1.4928    constr:    0.0000
     atom:    8    charge:   14.3983    magn:   -1.4942    constr:    0.0000
     atom:    9    charge:   14.3986    magn:    1.4909    constr:    0.0000
     atom:   10    charge:   14.3987    magn:   -1.4901    constr:    0.0000
     atom:   11    charge:   14.3979    magn:    1.4925    constr:    0.0000
     atom:   12    charge:   14.3983    magn:   -1.4942    constr:    0.0000
     atom:   13    charge:   14.3986    magn:    1.4916    constr:    0.0000
     atom:   14    charge:   14.3986    magn:   -1.4896    constr:    0.0000
     atom:   15    charge:   14.3979    magn:    1.4925    constr:    0.0000
     atom:   16    charge:   14.3983    magn:   -1.4942    constr:    0.0000
     atom:   17    charge:   14.3991    magn:    1.4912    constr:    0.0000
     atom:   18    charge:   14.3987    magn:   -1.4901    constr:    0.0000
     atom:   19    charge:   14.3980    magn:    1.4928    constr:    0.0000
     atom:   20    charge:   14.3982    magn:   -1.4934    constr:    0.0000
     atom:   21    charge:   14.3990    magn:    1.4916    constr:    0.0000
     atom:   22    charge:   14.3986    magn:   -1.4896    constr:    0.0000
     atom:   23    charge:   14.3980    magn:    1.4928    constr:    0.0000
     atom:   24    charge:   14.3982    magn:   -1.4934    constr:    0.0000
     atom:   25    charge:   14.3987    magn:    1.4904    constr:    0.0000
     atom:   26    charge:   14.3987    magn:   -1.4901    constr:    0.0000
     atom:   27    charge:   14.3979    magn:    1.4925    constr:    0.0000
     atom:   28    charge:   14.3982    magn:   -1.4934    constr:    0.0000
     atom:   29    charge:   14.3988    magn:    1.4906    constr:    0.0000
     atom:   30    charge:   14.3986    magn:   -1.4896    constr:    0.0000
     atom:   31    charge:   14.3979    magn:    1.4925    constr:    0.0000
     atom:   32    charge:   14.3982    magn:   -1.4934    constr:    0.0000

     End of self-consistent calculation

     Number of k-points >= 100: set verbosity='high' to print the bands.

     the Fermi energy is    20.0791 ev

!    total energy              =  -10536.25163863 Ry
     Harris-Foulkes estimate   =  -10536.25163852 Ry
     estimated scf accuracy    <       0.00000097 Ry

     total all-electron energy =    -81457.740697 Ry

     The total energy is the sum of the following terms:

     one-electron contribution =   -3297.38039919 Ry
     hartree contribution      =    1998.25958197 Ry
     xc contribution           =    -886.90231928 Ry
     ewald contribution        =   -5700.67984722 Ry
     one-center paw contrib.   =   -2649.56066283 Ry
     smearing contrib. (-TS)   =       0.01200792 Ry

[...]

     convergence has been achieved in  35 iterations

     Forces acting on atoms (cartesian axes, Ry/au):

     atom    1 type  1   force =     0.00000000    0.00000000    0.00000000
     atom    2 type  2   force =    -0.00005147    0.00005332   -0.00000000
     atom    3 type  3   force =    -0.00003765    0.00000000   -0.00003859
     atom    4 type  4   force =    -0.00000000    0.00000767    0.00006676
     atom    5 type  1   force =     0.00000000    0.00000000    0.00000000
     atom    6 type  2   force =    -0.00001893    0.00008860    0.00000000
     atom    7 type  3   force =    -0.00003765    0.00000000    0.00003859
     atom    8 type  4   force =     0.00000000    0.00000767   -0.00006676
     atom    9 type  1   force =     0.00000000    0.00000000    0.00000000
     atom   10 type  2   force =    -0.00005147   -0.00005332   -0.00000000
[...]
Fe1      0.000000000   0.500000000   0.000000000
Fe2      0.249996979   0.749997548   0.000000000
Fe3      0.250000438   0.500000000   0.250002373
Fe4      0.000000000   0.749998882   0.250004651
Fe1      0.000000000   0.500000000   0.500000000
Fe2      0.249999786   0.749994925   0.500000000
Fe3      0.250000438   0.500000000   0.749997627
Fe4      0.000000000   0.749998882   0.749995349
Fe1      0.500000000   0.000000000   0.000000000
Fe2      0.750003021   0.250002452   0.000000000
Fe3      0.750001768   0.000000000   0.249998473
Fe4      0.500000000   0.250000159   0.250002735
Fe1      0.500000000   0.000000000   0.500000000
Fe2      0.750000214   0.250005075   0.500000000
Fe3      0.750001768   0.000000000   0.750001527
Fe4      0.500000000   0.250000159   0.749997265
Fe1      0.500000000   0.500000000   0.000000000
Fe2      0.750003021   0.749997548   0.000000000
Fe3      0.749999562   0.500000000   0.250002373
Fe4      0.500000000   0.749999841   0.250002735
Fe1      0.500000000   0.500000000   0.500000000
Fe2      0.750000214   0.749994925   0.500000000
Fe3      0.749999562   0.500000000   0.749997627
Fe4      0.500000000   0.749999841   0.749997265
End final coordinates

     Writing output data file fbFIzmnGThoFrsLf.save/

     A final scf calculation at the relaxed structure.
     The G-vectors are recalculated for the final unit cell
     Results may differ from those at the preceding step.

     bravais-lattice index     =            0
     lattice parameter (alat)  =      12.9571  a.u.
     unit-cell volume          =    2283.7600 (a.u.)^3
     number of atoms/cell      =           32
     number of atomic types    =            4
     number of electrons       =       512.00
     number of Kohn-Sham states=          307
     kinetic-energy cutoff     =      71.0000  Ry
     charge density cutoff     =     430.0000  Ry
     convergence threshold     =      1.0E-08
     mixing beta               =       0.1000
     number of iterations used =           10  plain     mixing
     Exchange-correlation      = SLA PW PBX PBC ( 1  4  3  4 0 0)

     celldm(1)=  12.957143  celldm(2)=   0.000000  celldm(3)=   0.000000
     celldm(4)=   0.000000  celldm(5)=   0.000000  celldm(6)=   0.000000

     crystal axes: (cart. coord. in units of alat)
               a(1) = (   0.998537   0.000000   0.000000 )
               a(2) = (   0.000000   1.052931   0.000000 )
               a(3) = (   0.000000   0.000000   0.998524 )

     reciprocal axes: (cart. coord. in units 2 pi/alat)
               b(1) = (  1.001466  0.000000  0.000000 )
               b(2) = (  0.000000  0.949730  0.000000 )
               b(3) = (  0.000000  0.000000  1.001478 )

[...]

     PseudoPot. # 4 for Fe read from file:
     /rds/homes/b/bxp912/pp/Fe.pbe-spn-kjpaw_psl.1.0.0.UPF
     MD5 check sum: 42f43b795421b414b0dc916aa790dbcb
     Pseudo is Projector augmented-wave + core cor, Zval = 16.0
     Generated using "atomic" code by A. Dal Corso v.6.3
     Shape of augmentation charge: PSQ
     Using radial grid of 1191 points,  6 beta functions with:
                l(1) =   0
                l(2) =   0
                l(3) =   1
                l(4) =   1
                l(5) =   2
                l(6) =   2
     Q(r) pseudized with 0 coefficients

     atomic species   valence    mass     pseudopotential
        Fe1           16.00    55.84500     Fe( 1.00)
        Fe2           16.00    55.84500     Fe( 1.00)
        Fe3           16.00    55.84500     Fe( 1.00)
        Fe4           16.00    55.84500     Fe( 1.00)

     Starting magnetic structure
     atomic species   magnetization
        Fe1          0.104
        Fe2         -0.104
        Fe3          0.104
        Fe4         -0.104

      8 Sym. Ops., with inversion, found

   Cartesian axes

     site n.     atom                  positions (alat units)
         1           Fe1 tau(   1) = (   0.0000000   0.0000000   0.0000000  )
         2           Fe2 tau(   2) = (   0.2496311   0.2632354   0.0000000  )
         3           Fe3 tau(   3) = (   0.2496324  -0.0000000   0.2496296  )
         4           Fe4 tau(   4) = (  -0.0000000   0.2632340   0.2496358  )
         5           Fe1 tau(   5) = (   0.0000000   0.0000000   0.4992622  )
         6           Fe2 tau(   6) = (   0.2496339   0.2632382   0.4992622  )
         7           Fe3 tau(   7) = (   0.2496324  -0.0000000   0.7488949  )
         8           Fe4 tau(   8) = (  -0.0000000   0.2632340   0.7488887  )
         9           Fe1 tau(   9) = (   0.0000000   0.5264656   0.0000000  )
        10           Fe2 tau(  10) = (   0.2496311   0.7896959   0.0000000  )
        11           Fe3 tau(  11) = (   0.2496346   0.5264656   0.2496335  )
        12           Fe4 tau(  12) = (   0.0000000   0.7896973   0.2496358  )
        13           Fe1 tau(  13) = (   0.0000000   0.5264656   0.4992622  )
        14           Fe2 tau(  14) = (   0.2496339   0.7896931   0.4992622  )
        15           Fe3 tau(  15) = (   0.2496346   0.5264656   0.7488910  )
        16           Fe4 tau(  16) = (   0.0000000   0.7896973   0.7488887  )
        17           Fe1 tau(  17) = (   0.4992683   0.0000000   0.0000000  )
        18           Fe2 tau(  18) = (   0.7489054   0.2632354   0.0000000  )
        19           Fe3 tau(  19) = (   0.7489042   0.0000000   0.2496296  )
        20           Fe4 tau(  20) = (   0.4992683   0.2632330   0.2496338  )
        21           Fe1 tau(  21) = (   0.4992683   0.0000000   0.4992622  )
        22           Fe2 tau(  22) = (   0.7489026   0.2632382   0.4992622  )
        23           Fe3 tau(  23) = (   0.7489042   0.0000000   0.7488949  )
        24           Fe4 tau(  24) = (   0.4992683   0.2632330   0.7488906  )
        25           Fe1 tau(  25) = (   0.4992683   0.5264656   0.0000000  )
        26           Fe2 tau(  26) = (   0.7489054   0.7896959   0.0000000  )
        27           Fe3 tau(  27) = (   0.7489020   0.5264656   0.2496335  )
        28           Fe4 tau(  28) = (   0.4992683   0.7896983   0.2496338  )
        29           Fe1 tau(  29) = (   0.4992683   0.5264656   0.4992622  )
        30           Fe2 tau(  30) = (   0.7489026   0.7896931   0.4992622  )
        31           Fe3 tau(  31) = (   0.7489020   0.5264656   0.7488910  )
        32           Fe4 tau(  32) = (   0.4992683   0.7896983   0.7488906  )

     number of k points=   125  Marzari-Vanderbilt smearing, width (Ry)=  0.0400

     Number of k-points >= 100: set verbosity='high' to print them.

     Check: negative/imaginary core charge=   -0.000006    0.000000

     Initial potential from superposition of free atoms

     starting charge  511.98600, renormalised to  512.00000
     Starting wfcs are  320 randomized atomic wfcs
     Checking if some PAW data can be deallocated...

     Self-consistent Calculation

     iteration #  1     ecut=    71.00 Ry     beta= 0.10
     Davidson diagonalization with overlap
     c_bands:  1 eigenvalues not converged
     c_bands:  1 eigenvalues not converged
     c_bands:  1 eigenvalues not converged
     c_bands:  1 eigenvalues not converged
     c_bands:  1 eigenvalues not converged
     c_bands:  1 eigenvalues not converged
     c_bands:  1 eigenvalues not converged
     c_bands:  1 eigenvalues not converged
     c_bands:  1 eigenvalues not converged
     c_bands:  1 eigenvalues not converged
     c_bands:  1 eigenvalues not converged
     c_bands:  3 eigenvalues not converged
     c_bands:  1 eigenvalues not converged
     c_bands:  1 eigenvalues not converged
     c_bands:  1 eigenvalues not converged
     c_bands:  3 eigenvalues not converged
     c_bands:  2 eigenvalues not converged
     c_bands:  1 eigenvalues not converged
     c_bands:  1 eigenvalues not converged
     c_bands:  1 eigenvalues not converged
     c_bands:  1 eigenvalues not converged
     c_bands:  1 eigenvalues not converged
     c_bands:  1 eigenvalues not converged
     c_bands:  1 eigenvalues not converged
     c_bands:  1 eigenvalues not converged
     c_bands:  1 eigenvalues not converged
     c_bands:  1 eigenvalues not converged
     c_bands:  1 eigenvalues not converged
     c_bands:  1 eigenvalues not converged
     c_bands:  2 eigenvalues not converged
     c_bands:  1 eigenvalues not converged
     c_bands:  1 eigenvalues not converged
     c_bands:  1 eigenvalues not converged
     c_bands:  3 eigenvalues not converged
     c_bands:  1 eigenvalues not converged
     c_bands:  1 eigenvalues not converged
     c_bands:  1 eigenvalues not converged
     c_bands:  1 eigenvalues not converged
     c_bands:  1 eigenvalues not converged
     c_bands:  1 eigenvalues not converged
     c_bands:  1 eigenvalues not converged
     c_bands:  1 eigenvalues not converged
     c_bands:  1 eigenvalues not converged
     c_bands:  1 eigenvalues not converged
     c_bands:  1 eigenvalues not converged
     c_bands:  1 eigenvalues not converged
     c_bands:  1 eigenvalues not converged
     c_bands:  1 eigenvalues not converged
     c_bands:  3 eigenvalues not converged
     c_bands:  3 eigenvalues not converged
     c_bands:  1 eigenvalues not converged
     c_bands:  1 eigenvalues not converged
     c_bands:  1 eigenvalues not converged
     c_bands:  1 eigenvalues not converged
     c_bands:  1 eigenvalues not converged
     c_bands:  1 eigenvalues not converged
     c_bands:  1 eigenvalues not converged
     c_bands:  1 eigenvalues not converged
     c_bands:  1 eigenvalues not converged
     c_bands:  1 eigenvalues not converged
     c_bands:  1 eigenvalues not converged
     c_bands:  1 eigenvalues not converged
     c_bands:  1 eigenvalues not converged
     c_bands:  1 eigenvalues not converged
     c_bands:  1 eigenvalues not converged
     c_bands:  3 eigenvalues not converged
     c_bands:  3 eigenvalues not converged
     ethr =  1.00E-06,  avg # of iterations = 16.1

[...]

     total energy              =  -10536.25057836 Ry
     Harris-Foulkes estimate   =  -10536.25057835 Ry
     estimated scf accuracy    <       0.00000001 Ry

[...]

     iteration # 58     ecut=    71.00 Ry     beta= 0.10
     Davidson diagonalization with overlap
     ethr =  2.34E-12,  avg # of iterations =  2.9

     Magnetic moment per site:
     atom:    1    charge:   14.4007    magn:    1.4928    constr:    0.0000
     atom:    2    charge:   14.4009    magn:   -1.4938    constr:    0.0000
     atom:    3    charge:   14.4004    magn:    1.4932    constr:    0.0000
     atom:    4    charge:   14.4010    magn:   -1.4920    constr:    0.0000
     atom:    5    charge:   14.4007    magn:    1.4927    constr:    0.0000
     atom:    6    charge:   14.4009    magn:   -1.4938    constr:    0.0000
     atom:    7    charge:   14.4004    magn:    1.4932    constr:    0.0000
     atom:    8    charge:   14.4010    magn:   -1.4920    constr:    0.0000
     atom:    9    charge:   14.4008    magn:    1.4926    constr:    0.0000
     atom:   10    charge:   14.4009    magn:   -1.4938    constr:    0.0000
     atom:   11    charge:   14.4004    magn:    1.4931    constr:    0.0000
     atom:   12    charge:   14.4010    magn:   -1.4920    constr:    0.0000
     atom:   13    charge:   14.4008    magn:    1.4924    constr:    0.0000
     atom:   14    charge:   14.4009    magn:   -1.4938    constr:    0.0000
     atom:   15    charge:   14.4004    magn:    1.4931    constr:    0.0000
     atom:   16    charge:   14.4010    magn:   -1.4920    constr:    0.0000
     atom:   17    charge:   14.4007    magn:    1.4928    constr:    0.0000
     atom:   18    charge:   14.4009    magn:   -1.4938    constr:    0.0000
     atom:   19    charge:   14.4004    magn:    1.4932    constr:    0.0000
     atom:   20    charge:   14.4010    magn:   -1.4920    constr:    0.0000
     atom:   21    charge:   14.4007    magn:    1.4927    constr:    0.0000
     atom:   22    charge:   14.4009    magn:   -1.4938    constr:    0.0000
     atom:   23    charge:   14.4004    magn:    1.4932    constr:    0.0000
     atom:   24    charge:   14.4010    magn:   -1.4920    constr:    0.0000
     atom:   25    charge:   14.4007    magn:    1.4926    constr:    0.0000
     atom:   26    charge:   14.4009    magn:   -1.4938    constr:    0.0000
     atom:   27    charge:   14.4004    magn:    1.4931    constr:    0.0000
     atom:   28    charge:   14.4010    magn:   -1.4920    constr:    0.0000
     atom:   29    charge:   14.4008    magn:    1.4925    constr:    0.0000
     atom:   30    charge:   14.4009    magn:   -1.4938    constr:    0.0000
     atom:   31    charge:   14.4004    magn:    1.4931    constr:    0.0000
     atom:   32    charge:   14.4010    magn:   -1.4920    constr:    0.0000

     End of self-consistent calculation

     Number of k-points >= 100: set verbosity='high' to print the bands.

     the Fermi energy is    20.1183 ev

!    total energy              =  -10536.25057837 Ry
     Harris-Foulkes estimate   =  -10536.25057836 Ry
     estimated scf accuracy    <          9.1E-09 Ry

     total all-electron energy =    -81457.739636 Ry

     The total energy is the sum of the following terms:

     one-electron contribution =   -3292.36903185 Ry
     hartree contribution      =    1996.50648459 Ry
     xc contribution           =    -886.95646621 Ry
     ewald contribution        =   -5703.88525430 Ry
     one-center paw contrib.   =   -2649.56073136 Ry
     smearing contrib. (-TS)   =       0.01442075 Ry

     total magnetization       =     0.00 Bohr mag/cell
     absolute magnetization    =    49.55 Bohr mag/cell

     convergence has been achieved in  58 iterations

     Forces acting on atoms (cartesian axes, Ry/au):

     atom    1 type  1   force =     0.00000000    0.00000000    0.00000000
     atom    2 type  2   force =     0.00000656   -0.00000382    0.00000000
     atom    3 type  3   force =     0.00000141   -0.00000000    0.00000699
     atom    4 type  4   force =     0.00000000   -0.00000347   -0.00001068
     atom    5 type  1   force =     0.00000000    0.00000000    0.00000000
     atom    6 type  2   force =     0.00000127   -0.00000211    0.00000000
     atom    7 type  3   force =     0.00000141    0.00000000   -0.00000699
     atom    8 type  4   force =     0.00000000   -0.00000347    0.00001068
     atom    9 type  1   force =     0.00000000    0.00000000    0.00000000
     atom   10 type  2   force =     0.00000656    0.00000382   -0.00000000
     atom   11 type  3   force =     0.00001251   -0.00000000   -0.00001301
     atom   12 type  4   force =     0.00000000    0.00000347   -0.00001068
     atom   13 type  1   force =     0.00000000    0.00000000    0.00000000
     atom   14 type  2   force =     0.00000127    0.00000211    0.00000000
     atom   15 type  3   force =     0.00001251    0.00000000    0.00001301
     atom   16 type  4   force =     0.00000000    0.00000347    0.00001068
     atom   17 type  1   force =     0.00000000    0.00000000    0.00000000
     atom   18 type  2   force =    -0.00000656   -0.00000382   -0.00000000
     atom   19 type  3   force =    -0.00000141    0.00000000    0.00000699
     atom   20 type  4   force =     0.00000000    0.00000235   -0.00000868
     atom   21 type  1   force =     0.00000000    0.00000000    0.00000000
     atom   22 type  2   force =    -0.00000127   -0.00000211    0.00000000
     atom   23 type  3   force =    -0.00000141   -0.00000000   -0.00000699
     atom   24 type  4   force =     0.00000000    0.00000235    0.00000868
     atom   25 type  1   force =     0.00000000    0.00000000    0.00000000
     atom   26 type  2   force =    -0.00000656    0.00000382    0.00000000
     atom   27 type  3   force =    -0.00001251    0.00000000   -0.00001301
     atom   28 type  4   force =     0.00000000   -0.00000235   -0.00000868
     atom   29 type  1   force =     0.00000000    0.00000000    0.00000000
     atom   30 type  2   force =    -0.00000127    0.00000211    0.00000000
     atom   31 type  3   force =    -0.00001251   -0.00000000    0.00001301
     atom   32 type  4   force =     0.00000000   -0.00000235    0.00000868

     Total force =     0.000051     Total SCF correction =     0.000270
     SCF correction compared to forces is large: reduce conv_thr to get better values

     Computing stress (Cartesian axis) and pressure

          total   stress  (Ry/bohr**3)                   (kbar)     P=   -0.04
  -0.00000064   0.00000000   0.00000000         -0.09      0.00      0.00
   0.00000000   0.00000054   0.00000000          0.00      0.08      0.00
   0.00000000   0.00000000  -0.00000070          0.00      0.00     -0.10

     Writing output data file fbFIzmnGThoFrsLf.save/

     General routines

     Parallel routines

   This run was terminated on:   8:30: 8  17Jun2020

   JOB DONE.