     Program PWSCF v.6.7MaX starts on  7Dec2021 at  9:56:47

     R & G space division:  proc/nbgrp/npool/nimage =      72
     Reading input from relax.in

     Current dimensions of program PWSCF are:
     Max number of different atomic species (ntypx) = 10
     Max number of k-points (npk) =  40000
     Max angular momentum in pseudopotentials (lmaxx) =  3
     file Ru.pbe-spn-kjpaw_psl.1.0.0.UPF: wavefunction(s)  4D renormalized

     Subspace diagonalization in iterative solution of the eigenvalue problem:
     one sub-group per band group will be used

     Found symmetry operation: I + (  0.0000  0.0000  0.5000)
     This is a supercell, fractional translations are disabled

     bravais-lattice index     =            4
     lattice parameter (alat)  =      10.2300  a.u.
     unit-cell volume          =    1467.0549 (a.u.)^3
     number of atoms/cell      =           16
     number of atomic types    =            1
     number of electrons       =       256.00
     number of Kohn-Sham states=          154
     kinetic-energy cutoff     =      71.0000  Ry
     charge density cutoff     =     430.0000  Ry
     scf convergence threshold =      1.0E-06
     mixing beta               =       0.1000
     number of iterations used =           10  plain     mixing
     energy convergence thresh.=      1.0E-04
     force convergence thresh. =      1.0E-03
     press convergence thresh. =      5.0E-01
     Exchange-correlation= SLA  PW   PBX  PBC
                           (   1   4   3   4   0   0   0)
     nstep                     =           60

     celldm(1)=  10.230000  celldm(2)=   0.000000  celldm(3)=   1.582300
     celldm(4)=   0.000000  celldm(5)=   0.000000  celldm(6)=   0.000000

     crystal axes: (cart. coord. in units of alat)
               a(1) = (   1.000000   0.000000   0.000000 )
               a(2) = (  -0.500000   0.866025   0.000000 )
               a(3) = (   0.000000   0.000000   1.582300 )

     reciprocal axes: (cart. coord. in units 2 pi/alat)
               b(1) = (  1.000000  0.577350  0.000000 )
               b(2) = (  0.000000  1.154701  0.000000 )
               b(3) = (  0.000000  0.000000  0.631991 )

     PseudoPot. # 1 for Ru read from file:
     /rds/homes/b/bxp912/pp/Ru.pbe-spn-kjpaw_psl.1.0.0.UPF
     MD5 check sum: 0ae1f594dea09af7be8575c3a481d1ae
     Pseudo is Projector augmented-wave + core cor, Zval = 16.0
     Generated using "atomic" code by A. Dal Corso  v.5.1
     Shape of augmentation charge: PSQ
     Using radial grid of 1233 points,  6 beta functions with:
                l(1) =   0
                l(2) =   0
                l(3) =   1
                l(4) =   1
                l(5) =   2
                l(6) =   2
     Q(r) pseudized with 0 coefficients

     atomic species   valence    mass     pseudopotential
        Ru            16.00   101.07000     Ru( 1.00)

      4 Sym. Ops., with inversion, found

   Cartesian axes

     site n.     atom                  positions (alat units)
         1           Ru  tau(   1) = (   0.1250001   0.0721688   0.1977875  )
         2           Ru  tau(   2) = (   0.1249999   0.3608439   0.5933625  )
         3           Ru  tau(   3) = (   0.1250001   0.0721688   0.9889375  )
         4           Ru  tau(   4) = (   0.1249999   0.3608439   1.3845125  )
         5           Ru  tau(   5) = (  -0.1250000   0.5051815   0.1977875  )
         6           Ru  tau(   6) = (  -0.1250000   0.7938566   0.5933625  )
         7           Ru  tau(   7) = (  -0.1250000   0.5051815   0.9889375  )
         8           Ru  tau(   8) = (  -0.1250000   0.7938566   1.3845125  )
         9           Ru  tau(   9) = (   0.6250000   0.0721688   0.1977875  )
        10           Ru  tau(  10) = (   0.6250000   0.3608439   0.5933625  )
        11           Ru  tau(  11) = (   0.6250000   0.0721688   0.9889375  )
        12           Ru  tau(  12) = (   0.6250000   0.3608439   1.3845125  )
        13           Ru  tau(  13) = (   0.3750000   0.5051815   0.1977875  )
        14           Ru  tau(  14) = (   0.3750000   0.7938566   0.5933625  )
        15           Ru  tau(  15) = (   0.3750000   0.5051815   0.9889375  )
        16           Ru  tau(  16) = (   0.3750000   0.7938566   1.3845125  )

     number of k points=   378  Marzari-Vanderbilt smearing, width (Ry)=  0.0400

     Number of k-points >= 100: set verbosity='high' to print them.

     Check: negative core charge=   -0.000002

     Initial potential from superposition of free atoms

     starting charge  255.98980, renormalised to  256.00000
     Starting wfcs are  160 randomized atomic wfcs
     Checking if some PAW data can be deallocated...

     Self-consistent Calculation

     iteration #  1     ecut=    71.00 Ry     beta= 0.10
     Davidson diagonalization with overlap
     ethr =  1.00E-02,  avg # of iterations =  3.7

     Threshold (ethr) on eigenvalues was too large:
     Diagonalizing with lowered threshold

     Davidson diagonalization with overlap
     ethr =  9.86E-05,  avg # of iterations =  4.7

     total energy              =   -6906.84631392 Ry
     estimated scf accuracy    <       0.34392005 Ry

[...]

     End of self-consistent calculation

     Number of k-points >= 100: set verbosity='high' to print the bands.

     the Fermi energy is    23.7050 ev

!    total energy              =   -6906.78427671 Ry

     total all-electron energy =   -144994.979446 Ry
     estimated scf accuracy    <       0.00000027 Ry
     smearing contrib. (-TS)   =       0.01216948 Ry
     internal energy E=F+TS    =   -6906.79644620 Ry

     The total energy is F=E-TS. E is the sum of the following terms:
     one-electron contribution =    -476.13970422 Ry
     hartree contribution      =     451.47923135 Ry
     xc contribution           =    -464.33753139 Ry
     ewald contribution        =   -2623.06461692 Ry
     one-center paw contrib.   =   -3794.73382502 Ry

     convergence has been achieved in  11 iterations

     Forces acting on atoms (cartesian axes, Ry/au):

     atom    1 type  1   force =     0.00001330    0.00000768    0.00023072
     atom    2 type  1   force =    -0.00000621    0.00002567    0.00017881
     atom    3 type  1   force =     0.00001746    0.00001008   -0.00016960
     atom    4 type  1   force =    -0.00001412    0.00002257   -0.00023175
     atom    5 type  1   force =    -0.00001185   -0.00000684    0.00022136
     atom    6 type  1   force =     0.00001913   -0.00001821    0.00017881
     atom    7 type  1   force =    -0.00000043   -0.00000025   -0.00016763
     atom    8 type  1   force =     0.00001248   -0.00002351   -0.00023175
     atom    9 type  1   force =    -0.00001248    0.00002351    0.00023175
     atom   10 type  1   force =     0.00000043    0.00000025    0.00016763
     atom   11 type  1   force =    -0.00001913    0.00001821   -0.00017881
     atom   12 type  1   force =     0.00001185    0.00000684   -0.00022136
     atom   13 type  1   force =     0.00001412   -0.00002257    0.00023175
     atom   14 type  1   force =    -0.00001746   -0.00001008    0.00016960
     atom   15 type  1   force =     0.00000621   -0.00002567   -0.00017881
     atom   16 type  1   force =    -0.00001330   -0.00000768   -0.00023072

     Total force =     0.000817     Total SCF correction =     0.004504
     SCF correction compared to forces is large: reduce conv_thr to get better values

     Computing stress (Cartesian axis) and pressure

          total   stress  (Ry/bohr**3)                   (kbar)     P=       35.54
   0.00027132   0.00000000   0.00000000           39.91        0.00        0.00
   0.00000000   0.00027132   0.00000000            0.00       39.91        0.00
   0.00000000   0.00000000   0.00018225            0.00        0.00       26.81

     BFGS Geometry Optimization
     Energy error            =      0.0E+00
     Gradient error          =      2.3E-04
     Cell gradient error     =      2.7E-04

     number of scf cycles    =   1
     number of bfgs steps    =   0

     enthalpy new            =   -6906.7842767112 Ry

     new trust radius        =       0.0519609481 bohr
     new conv_thr            =       0.0000010000 Ry

     new unit-cell volume =   1493.79964 a.u.^3 (   221.35827 Ang^3 )
     density =     12.13097 g/cm^3

CELL_PARAMETERS (alat= 10.23000000)
   1.006783032   0.000000049   0.000000066
  -0.503391474   0.871899609  -0.000000000
   0.000000104   0.000000060   1.589509278

ATOMIC_POSITIONS (crystal)
Ru            0.1666684341        0.0833341671        0.1250142535
Ru            0.3333341420        0.4166695980        0.3750110465
Ru            0.1666689761        0.0833344381        0.6249895225
Ru            0.3333331932        0.4166692474        0.8749856829
Ru            0.1666651557        0.5833325279        0.1250136753
Ru            0.3333341420        0.9166646441        0.3750110465
Ru            0.1666666439        0.5833332720        0.6249896442
Ru            0.3333331932        0.9166640458        0.8749856829
Ru            0.6666668068        0.0833359542        0.1250143171
Ru            0.8333333561        0.4166667280        0.3750103558
Ru            0.6666658580        0.0833353559        0.6249889535
Ru            0.8333348443        0.4166674721        0.8749863247
Ru            0.6666668068        0.5833307526        0.1250143171
Ru            0.8333310239        0.9166655619        0.3750104775
Ru            0.6666658580        0.5833304020        0.6249889535
Ru            0.8333315659        0.9166658329        0.8749857465

     Writing output data file /scratch/bxp912/ruhcp2.save/
     NEW-OLD atomic charge density approx. for the potential

     Check: negative core charge=   -0.000003
     extrapolated charge  260.58320, renormalised to  256.00000

[...]

     Energy error            =      1.3E-03
     Gradient error          =      1.5E-04
     Cell gradient error     =      1.8E-04

[...]

     enthalpy old            =   -6906.7842767112 Ry
     enthalpy new            =   -6906.7856119607 Ry

     CASE: enthalpy_new < enthalpy_old

[...]

     Total force =     0.000178     Total SCF correction =     0.000015

[...]

     number of scf cycles    =   3
     number of bfgs steps    =   2

     enthalpy old            =   -6906.7856119607 Ry
     enthalpy new            =   -6906.7864062568 Ry

     CASE: enthalpy_new < enthalpy_old

     new trust radius        =       0.0012605019 bohr
     new conv_thr            =       0.0000000100 Ry

     new unit-cell volume =   1483.49307 a.u.^3 (   219.83099 Ang^3 )
     density =     12.21525 g/cm^3

[...]

ATOMIC_POSITIONS (crystal)
Ru            0.1666679414        0.0833339207        0.1250057365
Ru            0.3333338029        0.4166684759        0.3750051920
Ru            0.1666680886        0.0833339943        0.6249950850
Ru            0.3333334896        0.4166682718        0.8749943335
Ru            0.1666659381        0.5833329191        0.1250054122
Ru            0.3333338029        0.9166654271        0.3750051920
Ru            0.1666665377        0.5833332188        0.6249951040
Ru            0.3333334896        0.9166653178        0.8749943335
Ru            0.6666665104        0.0833346822        0.1250056665
Ru            0.8333334623        0.4166667812        0.3750048960
Ru            0.6666661971        0.0833345729        0.6249948080
Ru            0.8333340619        0.4166670809        0.8749945878
Ru            0.6666665104        0.5833317282        0.1250056665
Ru            0.8333319114        0.9166660057        0.3750049150
Ru            0.6666661971        0.5833315241        0.6249948080
Ru            0.8333320586        0.9166660793        0.8749942635

     Writing output data file /scratch/bxp912/ruhcp2.save/
     NEW-OLD atomic charge density approx. for the potential

     Check: negative core charge=   -0.000003
     extrapolated charge  256.00662, renormalised to  256.00000

[...]

     Threshold (ethr) on eigenvalues was too large:
     Diagonalizing with lowered threshold

     Davidson diagonalization with overlap
     ethr =  3.01E-10,  avg # of iterations =  3.9

[...]

     Energy error            =      1.5E-06
     Gradient error          =      2.9E-05
     Cell gradient error     =      2.1E-06

     bfgs converged in   4 scf cycles and   3 bfgs steps
     (criteria: energy <  1.0E-04 Ry, force <  1.0E-03Ry/Bohr, cell <  5.0E-01kbar)

     End of BFGS Geometry Optimization

     Final enthalpy =   -6906.7864077705 Ry

     File /scratch/bxp912/ruhcp2.bfgs deleted, as requested
Begin final coordinates
     new unit-cell volume =   1483.49307 a.u.^3 (   219.83099 Ang^3 )
     density =     12.21525 g/cm^3

CELL_PARAMETERS (alat= 10.23000000)
   1.004771940  -0.000000013   0.000000013
  -0.502385981   0.870158045  -0.000000000
   0.000000020   0.000000011   1.584867598

ATOMIC_POSITIONS (crystal)
Ru            0.1666679414        0.0833339207        0.1250057365
Ru            0.3333338029        0.4166684759        0.3750051920
Ru            0.1666680886        0.0833339943        0.6249950850
Ru            0.3333334896        0.4166682718        0.8749943335
Ru            0.1666659381        0.5833329191        0.1250054122
Ru            0.3333338029        0.9166654271        0.3750051920
Ru            0.1666665377        0.5833332188        0.6249951040
Ru            0.3333334896        0.9166653178        0.8749943335
Ru            0.6666665104        0.0833346822        0.1250056665
Ru            0.8333334623        0.4166667812        0.3750048960
Ru            0.6666661971        0.0833345729        0.6249948080
Ru            0.8333340619        0.4166670809        0.8749945878
Ru            0.6666665104        0.5833317282        0.1250056665
Ru            0.8333319114        0.9166660057        0.3750049150
Ru            0.6666661971        0.5833315241        0.6249948080
Ru            0.8333320586        0.9166660793        0.8749942635
End final coordinates

     Writing output data file /scratch/bxp912/ruhcp2.save/

     Final scf calculation at the relaxed structure.
     The G-vectors are recalculated for the final unit cell
     Results may differ from those at the preceding step.

     bravais-lattice index     =            4
     lattice parameter (alat)  =      10.2300  a.u.
     unit-cell volume          =    1483.4931 (a.u.)^3
     number of atoms/cell      =           16
     number of atomic types    =            1
     number of electrons       =       256.00
     number of Kohn-Sham states=          154
     kinetic-energy cutoff     =      71.0000  Ry
     charge density cutoff     =     430.0000  Ry
     scf convergence threshold =      1.0E-08
     mixing beta               =       0.1000
     number of iterations used =           10  plain     mixing
     press convergence thresh. =      5.0E-01
     Exchange-correlation= SLA  PW   PBX  PBC
                           (   1   4   3   4   0   0   0)

     celldm(1)=  10.230000  celldm(2)=   0.000000  celldm(3)=   1.582300
     celldm(4)=   0.000000  celldm(5)=   0.000000  celldm(6)=   0.000000

     crystal axes: (cart. coord. in units of alat)
               a(1) = (   1.004772  -0.000000   0.000000 )
               a(2) = (  -0.502386   0.870158  -0.000000 )
               a(3) = (   0.000000   0.000000   1.584868 )

     reciprocal axes: (cart. coord. in units 2 pi/alat)
               b(1) = (  0.995251  0.574608 -0.000000 )
               b(2) = (  0.000000  1.149217 -0.000000 )
               b(3) = ( -0.000000 -0.000000  0.630968 )

     PseudoPot. # 1 for Ru read from file:
     /rds/homes/b/bxp912/pp/Ru.pbe-spn-kjpaw_psl.1.0.0.UPF
     MD5 check sum: 0ae1f594dea09af7be8575c3a481d1ae
     Pseudo is Projector augmented-wave + core cor, Zval = 16.0
     Generated using "atomic" code by A. Dal Corso  v.5.1
     Shape of augmentation charge: PSQ
     Using radial grid of 1233 points,  6 beta functions with:
                l(1) =   0
                l(2) =   0
                l(3) =   1
                l(4) =   1
                l(5) =   2
                l(6) =   2
     Q(r) pseudized with 0 coefficients

     atomic species   valence    mass     pseudopotential
        Ru            16.00   101.07000     Ru( 1.00)

      4 Sym. Ops., with inversion, found

   Cartesian axes

     site n.     atom                  positions (alat units)
         1           Ru  tau(   1) = (   0.1255975   0.0725137   0.1981175  )
         2           Ru  tau(   2) = (   0.1255961   0.3625674   0.5943336  )
         3           Ru  tau(   3) = (   0.1255976   0.0725138   0.9905345  )
         4           Ru  tau(   4) = (   0.1255959   0.3625673   1.3867502  )
         5           Ru  tau(   5) = (  -0.1255970   0.5075918   0.1981170  )
         6           Ru  tau(   6) = (  -0.1255954   0.7976438   0.5943336  )
         7           Ru  tau(   7) = (  -0.1255966   0.5075921   0.9905345  )
         8           Ru  tau(   8) = (  -0.1255957   0.7976437   1.3867502  )
         9           Ru  tau(   9) = (   0.6279816   0.0725143   0.1981174  )
        10           Ru  tau(  10) = (   0.6279825   0.3625659   0.5943331  )
        11           Ru  tau(  11) = (   0.6279814   0.0725142   0.9905340  )
        12           Ru  tau(  12) = (   0.6279830   0.3625662   1.3867506  )
        13           Ru  tau(  13) = (   0.3767901   0.5075908   0.1981174  )
        14           Ru  tau(  14) = (   0.3767884   0.7976443   0.5943331  )
        15           Ru  tau(  15) = (   0.3767899   0.5075906   0.9905340  )
        16           Ru  tau(  16) = (   0.3767885   0.7976444   1.3867501  )

     number of k points=   378  Marzari-Vanderbilt smearing, width (Ry)=  0.0400

     Number of k-points >= 100: set verbosity='high' to print them.

     Check: negative core charge=   -0.000002

     Initial potential from superposition of free atoms

     starting charge  255.98980, renormalised to  256.00000
     Starting wfcs are  160 randomized atomic wfcs
     Checking if some PAW data can be deallocated...

     Self-consistent Calculation

     iteration #  1     ecut=    71.00 Ry     beta= 0.10
     Davidson diagonalization with overlap
     c_bands:  1 eigenvalues not converged
     c_bands:  1 eigenvalues not converged
     c_bands:  1 eigenvalues not converged
     c_bands:  1 eigenvalues not converged
     c_bands:  1 eigenvalues not converged
     c_bands:  1 eigenvalues not converged
     c_bands:  1 eigenvalues not converged
     c_bands:  1 eigenvalues not converged
     c_bands:  1 eigenvalues not converged
     c_bands:  1 eigenvalues not converged
     c_bands:  1 eigenvalues not converged
     c_bands:  1 eigenvalues not converged
     c_bands:  1 eigenvalues not converged
     c_bands:  1 eigenvalues not converged
     c_bands:  1 eigenvalues not converged
     c_bands:  1 eigenvalues not converged
     c_bands:  1 eigenvalues not converged
     c_bands:  1 eigenvalues not converged
     c_bands:  1 eigenvalues not converged
     c_bands:  1 eigenvalues not converged
     c_bands:  1 eigenvalues not converged
     c_bands:  1 eigenvalues not converged
     c_bands:  1 eigenvalues not converged
     c_bands:  1 eigenvalues not converged
     c_bands:  1 eigenvalues not converged
     c_bands:  1 eigenvalues not converged
     c_bands:  1 eigenvalues not converged
     ethr =  1.00E-06,  avg # of iterations = 13.3

[...]

     total energy              =   -6906.78722290 Ry
     estimated scf accuracy    <       0.00000001 Ry

     iteration # 14     ecut=    71.00 Ry     beta= 0.10
     Davidson diagonalization with overlap
     ethr =  4.77E-12,  avg # of iterations =  2.0

     End of self-consistent calculation

     Number of k-points >= 100: set verbosity='high' to print the bands.

     the Fermi energy is    23.3822 ev

!    total energy              =   -6906.78722345 Ry

     total all-electron energy =   -144994.982393 Ry
     estimated scf accuracy    <          5.3E-09 Ry
     smearing contrib. (-TS)   =       0.01281583 Ry
     internal energy E=F+TS    =   -6906.80003928 Ry

     The total energy is F=E-TS. E is the sum of the following terms:
     one-electron contribution =    -490.45087727 Ry
     hartree contribution      =     455.76082424 Ry
     xc contribution           =    -464.11951195 Ry
     ewald contribution        =   -2613.26463220 Ry
     one-center paw contrib.   =   -3794.72584210 Ry

     convergence has been achieved in  14 iterations

     Forces acting on atoms (cartesian axes, Ry/au):

     atom    1 type  1   force =    -0.00000309   -0.00000178   -0.00005069
     atom    2 type  1   force =    -0.00000085   -0.00000498   -0.00002341
     atom    3 type  1   force =    -0.00000488   -0.00000282    0.00002061
     atom    4 type  1   force =     0.00000162   -0.00000408    0.00005232
     atom    5 type  1   force =     0.00000103    0.00000059   -0.00004791
     atom    6 type  1   force =    -0.00000473    0.00000175   -0.00002341
     atom    7 type  1   force =    -0.00000191   -0.00000110    0.00001888
     atom    8 type  1   force =    -0.00000272    0.00000344    0.00005232
     atom    9 type  1   force =     0.00000272   -0.00000344   -0.00005232
     atom   10 type  1   force =     0.00000191    0.00000110   -0.00001888
     atom   11 type  1   force =     0.00000473   -0.00000175    0.00002341
     atom   12 type  1   force =    -0.00000103   -0.00000059    0.00004791
     atom   13 type  1   force =    -0.00000162    0.00000408   -0.00005232
     atom   14 type  1   force =     0.00000488    0.00000282   -0.00002061
     atom   15 type  1   force =     0.00000085    0.00000498    0.00002341
     atom   16 type  1   force =     0.00000309    0.00000178    0.00005069

     Total force =     0.000157     Total SCF correction =     0.000249
     SCF correction compared to forces is large: reduce conv_thr to get better values

     Computing stress (Cartesian axis) and pressure

          total   stress  (Ry/bohr**3)                   (kbar)     P=        0.11
   0.00000170   0.00000000  -0.00000000            0.25        0.00       -0.00
   0.00000000   0.00000170  -0.00000000            0.00        0.25       -0.00
  -0.00000000  -0.00000000  -0.00000114           -0.00       -0.00       -0.17

     Writing output data file /scratch/bxp912/ruhcp2.save/

     General routines

     Parallel routines

   This run was terminated on:  11:59:30   7Dec2021

   JOB DONE.