     Program PWSCF v.6.7MaX starts on 14Mar2022 at 13:46:40

     R & G space division:  proc/nbgrp/npool/nimage =      72
     Reading input from fe_relax_bcc.in

     Current dimensions of program PWSCF are:
     Max number of different atomic species (ntypx) = 10
     Max number of k-points (npk) =  40000
     Max angular momentum in pseudopotentials (lmaxx) =  3
     file Fe.pbe-spn-kjpaw_psl.1.0.0.UPF: wavefunction(s)  3P 3D renormalized
     file Fe.pbe-spn-kjpaw_psl.1.0.0.UPF: wavefunction(s)  3P 3D renormalized

     Subspace diagonalization in iterative solution of the eigenvalue problem:
     one sub-group per band group will be used

     Found symmetry operation: I + (  0.0000  0.0000 -0.5000)
     This is a supercell, fractional translations are disabled
     Message from routine setup:
     using ibrav=0 with symmetry is DISCOURAGED, use correct ibrav instead

     bravais-lattice index     =            0
     lattice parameter (alat)  =      10.5840  a.u.
     unit-cell volume          =    1185.6309 (a.u.)^3
     number of atoms/cell      =           16
     number of atomic types    =            2
     number of electrons       =       256.00
     number of Kohn-Sham states=          154
     kinetic-energy cutoff     =      71.0000  Ry
     charge density cutoff     =     430.0000  Ry
     scf convergence threshold =      1.0E-08
     mixing beta               =       0.3000
     number of iterations used =           10  plain     mixing
     energy convergence thresh.=      1.0E-04
     force convergence thresh. =      1.0E-03
     press convergence thresh. =      5.0E-01
     Exchange-correlation= SLA  PW   PBX  PBC
                           (   1   4   3   4   0   0   0)
     nstep                     =           40

     celldm(1)=  10.584000  celldm(2)=   0.000000  celldm(3)=   0.000000
     celldm(4)=   0.000000  celldm(5)=   0.000000  celldm(6)=   0.000000

     crystal axes: (cart. coord. in units of alat)
               a(1) = (   1.000000   0.000000   0.000000 )
               a(2) = (   0.000000   1.000000   0.000000 )
               a(3) = (   0.000000   0.000000   1.000000 )

     reciprocal axes: (cart. coord. in units 2 pi/alat)
               b(1) = (  1.000000  0.000000  0.000000 )
               b(2) = (  0.000000  1.000000  0.000000 )
               b(3) = (  0.000000  0.000000  1.000000 )

     PseudoPot. # 1 for Fe read from file:
     /rds/homes/b/bxp912/pp/Fe.pbe-spn-kjpaw_psl.1.0.0.UPF
     MD5 check sum: 42f43b795421b414b0dc916aa790dbcb
     Pseudo is Projector augmented-wave + core cor, Zval = 16.0
     Generated using &quot;atomic&quot; code by A. Dal Corso  v.6.3
     Shape of augmentation charge: PSQ
     Using radial grid of 1191 points,  6 beta functions with:
                l(1) =   0
                l(2) =   0
                l(3) =   1
                l(4) =   1
                l(5) =   2
                l(6) =   2
     Q(r) pseudized with 0 coefficients

[...]

     atomic species   valence    mass     pseudopotential
        Fe1           16.00    55.84500     Fe( 1.00)
        Fe2           16.00    55.84500     Fe( 1.00)

     Starting magnetic structure
     atomic species   magnetization
        Fe1          0.100
        Fe2          0.100

     48 Sym. Ops., with inversion, found

   Cartesian axes

     site n.     atom                  positions (alat units)
         1           Fe1 tau(   1) = (   0.0000000   0.0000000   0.0000000  )
         2           Fe2 tau(   2) = (   0.2500000   0.2500000   0.2500000  )
         3           Fe1 tau(   3) = (   0.0000000   0.0000000   0.5000000  )
         4           Fe2 tau(   4) = (   0.2500000   0.2500000   0.7500000  )
         5           Fe1 tau(   5) = (   0.0000000   0.5000000   0.0000000  )
         6           Fe2 tau(   6) = (   0.2500000   0.7500000   0.2500000  )
         7           Fe1 tau(   7) = (   0.0000000   0.5000000   0.5000000  )
         8           Fe2 tau(   8) = (   0.2500000   0.7500000   0.7500000  )
         9           Fe1 tau(   9) = (   0.5000000   0.0000000   0.0000000  )
        10           Fe2 tau(  10) = (   0.7500000   0.2500000   0.2500000  )
        11           Fe1 tau(  11) = (   0.5000000   0.0000000   0.5000000  )
        12           Fe2 tau(  12) = (   0.7500000   0.2500000   0.7500000  )
        13           Fe1 tau(  13) = (   0.5000000   0.5000000   0.0000000  )
        14           Fe2 tau(  14) = (   0.7500000   0.7500000   0.2500000  )
        15           Fe1 tau(  15) = (   0.5000000   0.5000000   0.5000000  )
        16           Fe2 tau(  16) = (   0.7500000   0.7500000   0.7500000  )

     number of k points=    35  Marzari-Vanderbilt smearing, width (Ry)=  0.0400
                       cart. coord. in units 2pi/alat
        k(    1) = (   0.0555556   0.0555556   0.0555556), wk =   0.0109739
        k(    2) = (   0.0555556   0.0555556   0.1666667), wk =   0.0329218
        k(    3) = (   0.0555556   0.0555556   0.2777778), wk =   0.0329218
        k(    4) = (   0.0555556   0.0555556   0.3888889), wk =   0.0329218
        k(    5) = (   0.0555556   0.0555556  -0.5000000), wk =   0.0164609
        k(    6) = (   0.0555556   0.1666667   0.1666667), wk =   0.0329218
        k(    7) = (   0.0555556   0.1666667   0.2777778), wk =   0.0658436
        k(    8) = (   0.0555556   0.1666667   0.3888889), wk =   0.0658436
        k(    9) = (   0.0555556   0.1666667  -0.5000000), wk =   0.0329218
        k(   10) = (   0.0555556   0.2777778   0.2777778), wk =   0.0329218
        k(   11) = (   0.0555556   0.2777778   0.3888889), wk =   0.0658436
        k(   12) = (   0.0555556   0.2777778  -0.5000000), wk =   0.0329218
        k(   13) = (   0.0555556   0.3888889   0.3888889), wk =   0.0329218
        k(   14) = (   0.0555556   0.3888889  -0.5000000), wk =   0.0329218
        k(   15) = (   0.0555556  -0.5000000  -0.5000000), wk =   0.0082305
        k(   16) = (   0.1666667   0.1666667   0.1666667), wk =   0.0109739
        k(   17) = (   0.1666667   0.1666667   0.2777778), wk =   0.0329218
        k(   18) = (   0.1666667   0.1666667   0.3888889), wk =   0.0329218
        k(   19) = (   0.1666667   0.1666667  -0.5000000), wk =   0.0164609
        k(   20) = (   0.1666667   0.2777778   0.2777778), wk =   0.0329218
        k(   21) = (   0.1666667   0.2777778   0.3888889), wk =   0.0658436
        k(   22) = (   0.1666667   0.2777778  -0.5000000), wk =   0.0329218
        k(   23) = (   0.1666667   0.3888889   0.3888889), wk =   0.0329218
        k(   24) = (   0.1666667   0.3888889  -0.5000000), wk =   0.0329218
        k(   25) = (   0.1666667  -0.5000000  -0.5000000), wk =   0.0082305
        k(   26) = (   0.2777778   0.2777778   0.2777778), wk =   0.0109739
        k(   27) = (   0.2777778   0.2777778   0.3888889), wk =   0.0329218
        k(   28) = (   0.2777778   0.2777778  -0.5000000), wk =   0.0164609
        k(   29) = (   0.2777778   0.3888889   0.3888889), wk =   0.0329218
        k(   30) = (   0.2777778   0.3888889  -0.5000000), wk =   0.0329218
        k(   31) = (   0.2777778  -0.5000000  -0.5000000), wk =   0.0082305
        k(   32) = (   0.3888889   0.3888889   0.3888889), wk =   0.0109739
        k(   33) = (   0.3888889   0.3888889  -0.5000000), wk =   0.0164609
        k(   34) = (   0.3888889  -0.5000000  -0.5000000), wk =   0.0082305
        k(   35) = (  -0.5000000  -0.5000000  -0.5000000), wk =   0.0013717

     Check: negative core charge=   -0.000006
     Generating pointlists ...
     new r_m :   0.1786 (alat units)  1.8905 (a.u.) for type    1
     new r_m :   0.1786 (alat units)  1.8905 (a.u.) for type    2

     Initial potential from superposition of free atoms

     starting charge  255.99300, renormalised to  256.00000
     Starting wfcs are  160 randomized atomic wfcs
     Checking if some PAW data can be deallocated...

     Self-consistent Calculation

     iteration #  1     ecut=    71.00 Ry     beta= 0.30
     Davidson diagonalization with overlap
     ethr =  1.00E-02,  avg # of iterations =  3.4

     Threshold (ethr) on eigenvalues was too large:
     Diagonalizing with lowered threshold

     Davidson diagonalization with overlap
     ethr =  1.18E-04,  avg # of iterations =  5.3

     total energy              =   -5267.89529111 Ry
     estimated scf accuracy    <       0.59490212 Ry

     total magnetization       =    27.91 Bohr mag/cell
     absolute magnetization    =    28.01 Bohr mag/cell

[...]

     negative rho (up, down):  0.000E+00 2.673E-03

[...]

     Magnetic moment per site:
     atom:    1    charge:   14.3642    magn:    2.0970    constr:    0.0000
     atom:    2    charge:   14.3642    magn:    2.0971    constr:    0.0000
     atom:    3    charge:   14.3642    magn:    2.0970    constr:    0.0000
     atom:    4    charge:   14.3642    magn:    2.0971    constr:    0.0000
     atom:    5    charge:   14.3642    magn:    2.0970    constr:    0.0000
     atom:    6    charge:   14.3642    magn:    2.0971    constr:    0.0000
     atom:    7    charge:   14.3642    magn:    2.0969    constr:    0.0000
     atom:    8    charge:   14.3642    magn:    2.0971    constr:    0.0000
     atom:    9    charge:   14.3642    magn:    2.0970    constr:    0.0000
     atom:   10    charge:   14.3642    magn:    2.0971    constr:    0.0000
     atom:   11    charge:   14.3642    magn:    2.0969    constr:    0.0000
     atom:   12    charge:   14.3642    magn:    2.0971    constr:    0.0000
     atom:   13    charge:   14.3642    magn:    2.0969    constr:    0.0000
     atom:   14    charge:   14.3642    magn:    2.0971    constr:    0.0000
     atom:   15    charge:   14.3642    magn:    2.0966    constr:    0.0000
     atom:   16    charge:   14.3642    magn:    2.0971    constr:    0.0000

     End of self-consistent calculation

 ------ SPIN UP ------------

          k = 0.0556 0.0556 0.0556 ( 11954 PWs)   bands (ev):

   -69.0288 -68.9515 -68.9515 -68.9514 -68.9390 -68.9390 -68.9390 -68.9379
   -68.9379 -68.9378 -68.9378 -68.9378 -68.9377 -68.9324 -68.9321 -68.8723
   -35.2541 -35.2541 -35.2541 -35.2516 -35.2516 -35.2516 -35.1236 -35.1236
   -35.1184 -35.0585 -35.0555 -35.0555 -35.0554 -35.0383 -35.0383 -35.0269
   -35.0269 -35.0269 -34.9980 -34.9980 -34.9786 -34.9675 -34.9674 -34.9674
   -34.9579 -34.9579 -34.9579 -34.9481 -34.9481 -34.9481 -34.9453 -34.9453
   -34.9453 -34.9382 -34.9382 -34.9382 -34.9292 -34.9292 -34.9292 -34.7966
   -34.7949 -34.7949 -34.7949 -34.7921 -34.7921 -34.7921 -34.7921 -34.7921
    10.4009  13.9643  13.9643  13.9643  13.9834  13.9834  13.9834  14.0138
    14.0138  14.0165  14.0165  14.0165  14.4251  14.4251  14.4251  15.6039
    15.6163  15.6164  15.6164  15.6291  15.6291  15.6291  15.6897  15.6897
    15.7655  15.7655  15.7655  15.8343  15.8343  15.8899  16.1066  16.1066
    16.1066  16.7576  16.7576  16.8003  17.0863  17.0863  17.0863  17.1660
    17.1661  17.1661  17.2597  17.2597  17.2597  17.3411  17.3411  17.3411
    17.9801  17.9801  17.9801  17.9831  17.9831  18.0257  18.0257  18.0257
    18.0721  18.0721  18.0721  18.0790  18.0790  18.0790  18.1945  18.1946
    18.1946  18.2031  18.2031  18.2031  18.2339  18.2339  18.2348  18.2348
[...]
Fe1           0.5000000000        0.0000000000        0.0000000000
Fe2           0.7499997148        0.2500002852        0.2500002852
Fe1           0.5000000000        0.0000000000        0.5000000000
Fe2           0.7499997148        0.2500002852        0.7499997148
Fe1           0.5000000000        0.5000000000        0.0000000000
Fe2           0.7499997148        0.7499997148        0.2500002852
Fe1           0.5000000000        0.5000000000        0.5000000000
Fe2           0.7499997148        0.7499997148        0.7499997148

     Writing output data file /scratch/ferelaxbcc.save/
     NEW-OLD atomic charge density approx. for the potential

     Check: negative core charge=   -0.000006

     negative rho (up, down):  0.000E+00 2.463E-03
     extrapolated charge  255.86524, renormalised to  256.00000
     Generating pointlists ...

[...]

     Energy error            =      1.3E-06
     Gradient error          =      1.2E-06
     Cell gradient error     =      2.3E-06

     bfgs converged in   3 scf cycles and   2 bfgs steps
     (criteria: energy <  1.0E-04 Ry, force <  1.0E-03Ry/Bohr, cell <  5.0E-01kbar)

     End of BFGS Geometry Optimization

     Final enthalpy =   -5268.1884679396 Ry

     File /scratch/ferelaxbcc.bfgs deleted, as requested
Begin final coordinates
     new unit-cell volume =   1187.43868 a.u.^3 (   175.96026 Ang^3 )
     density =      8.43216 g/cm^3

CELL_PARAMETERS (alat= 10.58400000)
   1.000508001   0.000000000   0.000000000
   0.000000000   1.000508001   0.000000000
   0.000000000   0.000000000   1.000508001

ATOMIC_POSITIONS (crystal)
Fe1           0.0000000000        0.0000000000        0.0000000000
Fe2           0.2500002852        0.2500002852        0.2500002852
Fe1           0.0000000000        0.0000000000        0.5000000000
Fe2           0.2500002852        0.2500002852        0.7499997148
Fe1           0.0000000000        0.5000000000        0.0000000000
Fe2           0.2500002852        0.7499997148        0.2500002852
Fe1           0.0000000000        0.5000000000        0.5000000000
Fe2           0.2500002852        0.7499997148        0.7499997148
Fe1           0.5000000000        0.0000000000        0.0000000000
Fe2           0.7499997148        0.2500002852        0.2500002852
Fe1           0.5000000000        0.0000000000        0.5000000000
Fe2           0.7499997148        0.2500002852        0.7499997148
Fe1           0.5000000000        0.5000000000        0.0000000000
Fe2           0.7499997148        0.7499997148        0.2500002852
Fe1           0.5000000000        0.5000000000        0.5000000000
Fe2           0.7499997148        0.7499997148        0.7499997148
End final coordinates

     Writing output data file /scratch/ferelaxbcc.save/

     Final scf calculation at the relaxed structure.
     The G-vectors are recalculated for the final unit cell
     Results may differ from those at the preceding step.

     bravais-lattice index     =            0
     lattice parameter (alat)  =      10.5840  a.u.
     unit-cell volume          =    1187.4387 (a.u.)^3
     number of atoms/cell      =           16
     number of atomic types    =            2
     number of electrons       =       256.00
     number of Kohn-Sham states=          154
     kinetic-energy cutoff     =      71.0000  Ry
     charge density cutoff     =     430.0000  Ry
     scf convergence threshold =      1.0E-10
     mixing beta               =       0.3000
     number of iterations used =           10  plain     mixing
     press convergence thresh. =      5.0E-01
     Exchange-correlation= SLA  PW   PBX  PBC
                           (   1   4   3   4   0   0   0)

     celldm(1)=  10.584000  celldm(2)=   0.000000  celldm(3)=   0.000000
     celldm(4)=   0.000000  celldm(5)=   0.000000  celldm(6)=   0.000000

     crystal axes: (cart. coord. in units of alat)
               a(1) = (   1.000508   0.000000   0.000000 )
               a(2) = (   0.000000   1.000508   0.000000 )
               a(3) = (   0.000000   0.000000   1.000508 )

     reciprocal axes: (cart. coord. in units 2 pi/alat)
               b(1) = (  0.999492  0.000000  0.000000 )
               b(2) = (  0.000000  0.999492  0.000000 )
               b(3) = (  0.000000  0.000000  0.999492 )

[...]

     PseudoPot. # 2 for Fe read from file:
     /rds/homes/b/bxp912/pp/Fe.pbe-spn-kjpaw_psl.1.0.0.UPF
     MD5 check sum: 42f43b795421b414b0dc916aa790dbcb
     Pseudo is Projector augmented-wave + core cor, Zval = 16.0
     Generated using &quot;atomic&quot; code by A. Dal Corso  v.6.3
     Shape of augmentation charge: PSQ
     Using radial grid of 1191 points,  6 beta functions with:
                l(1) =   0
                l(2) =   0
                l(3) =   1
                l(4) =   1
                l(5) =   2
                l(6) =   2
     Q(r) pseudized with 0 coefficients

     atomic species   valence    mass     pseudopotential
        Fe1           16.00    55.84500     Fe( 1.00)
        Fe2           16.00    55.84500     Fe( 1.00)

     Starting magnetic structure
     atomic species   magnetization
        Fe1          0.146
        Fe2          0.146

     48 Sym. Ops., with inversion, found

   Cartesian axes

     site n.     atom                  positions (alat units)
         1           Fe1 tau(   1) = (   0.0000000   0.0000000   0.0000000  )
         2           Fe2 tau(   2) = (   0.2501273   0.2501273   0.2501273  )
         3           Fe1 tau(   3) = (   0.0000000   0.0000000   0.5002540  )
         4           Fe2 tau(   4) = (   0.2501273   0.2501273   0.7503807  )
         5           Fe1 tau(   5) = (   0.0000000   0.5002540   0.0000000  )
         6           Fe2 tau(   6) = (   0.2501273   0.7503807   0.2501273  )
         7           Fe1 tau(   7) = (   0.0000000   0.5002540   0.5002540  )
         8           Fe2 tau(   8) = (   0.2501273   0.7503807   0.7503807  )
         9           Fe1 tau(   9) = (   0.5002540   0.0000000   0.0000000  )
        10           Fe2 tau(  10) = (   0.7503807   0.2501273   0.2501273  )
        11           Fe1 tau(  11) = (   0.5002540   0.0000000   0.5002540  )
        12           Fe2 tau(  12) = (   0.7503807   0.2501273   0.7503807  )
        13           Fe1 tau(  13) = (   0.5002540   0.5002540   0.0000000  )
        14           Fe2 tau(  14) = (   0.7503807   0.7503807   0.2501273  )
        15           Fe1 tau(  15) = (   0.5002540   0.5002540   0.5002540  )
        16           Fe2 tau(  16) = (   0.7503807   0.7503807   0.7503807  )

     number of k points=    35  Marzari-Vanderbilt smearing, width (Ry)=  0.0400
                       cart. coord. in units 2pi/alat
        k(    1) = (   0.0555273   0.0555273   0.0555273), wk =   0.0109739
        k(    2) = (   0.0555273   0.0555273   0.1665820), wk =   0.0329218
        k(    3) = (   0.0555273   0.0555273   0.2776367), wk =   0.0329218
        k(    4) = (   0.0555273   0.0555273   0.3886914), wk =   0.0329218
        k(    5) = (   0.0555273   0.0555273  -0.4997461), wk =   0.0164609
        k(    6) = (   0.0555273   0.1665820   0.1665820), wk =   0.0329218
        k(    7) = (   0.0555273   0.1665820   0.2776367), wk =   0.0658436
        k(    8) = (   0.0555273   0.1665820   0.3886914), wk =   0.0658436
        k(    9) = (   0.0555273   0.1665820  -0.4997461), wk =   0.0329218
        k(   10) = (   0.0555273   0.2776367   0.2776367), wk =   0.0329218
        k(   11) = (   0.0555273   0.2776367   0.3886914), wk =   0.0658436
        k(   12) = (   0.0555273   0.2776367  -0.4997461), wk =   0.0329218
        k(   13) = (   0.0555273   0.3886914   0.3886914), wk =   0.0329218
        k(   14) = (   0.0555273   0.3886914  -0.4997461), wk =   0.0329218
        k(   15) = (   0.0555273  -0.4997461  -0.4997461), wk =   0.0082305
        k(   16) = (   0.1665820   0.1665820   0.1665820), wk =   0.0109739
        k(   17) = (   0.1665820   0.1665820   0.2776367), wk =   0.0329218
        k(   18) = (   0.1665820   0.1665820   0.3886914), wk =   0.0329218
        k(   19) = (   0.1665820   0.1665820  -0.4997461), wk =   0.0164609
        k(   20) = (   0.1665820   0.2776367   0.2776367), wk =   0.0329218
        k(   21) = (   0.1665820   0.2776367   0.3886914), wk =   0.0658436
        k(   22) = (   0.1665820   0.2776367  -0.4997461), wk =   0.0329218
        k(   23) = (   0.1665820   0.3886914   0.3886914), wk =   0.0329218
        k(   24) = (   0.1665820   0.3886914  -0.4997461), wk =   0.0329218
        k(   25) = (   0.1665820  -0.4997461  -0.4997461), wk =   0.0082305
        k(   26) = (   0.2776367   0.2776367   0.2776367), wk =   0.0109739
        k(   27) = (   0.2776367   0.2776367   0.3886914), wk =   0.0329218
        k(   28) = (   0.2776367   0.2776367  -0.4997461), wk =   0.0164609
        k(   29) = (   0.2776367   0.3886914   0.3886914), wk =   0.0329218
        k(   30) = (   0.2776367   0.3886914  -0.4997461), wk =   0.0329218
        k(   31) = (   0.2776367  -0.4997461  -0.4997461), wk =   0.0082305
        k(   32) = (   0.3886914   0.3886914   0.3886914), wk =   0.0109739
        k(   33) = (   0.3886914   0.3886914  -0.4997461), wk =   0.0164609
        k(   34) = (   0.3886914  -0.4997461  -0.4997461), wk =   0.0082305
        k(   35) = (  -0.4997461  -0.4997461  -0.4997461), wk =   0.0013717

     Check: negative core charge=   -0.000006
     Generating pointlists ...

     Initial potential from superposition of free atoms

     starting charge  255.99300, renormalised to  256.00000
     Starting wfcs are  160 randomized atomic wfcs
     Checking if some PAW data can be deallocated...

     Self-consistent Calculation

     iteration #  1     ecut=    71.00 Ry     beta= 0.30
     Davidson diagonalization with overlap
     c_bands:  1 eigenvalues not converged
     c_bands:  2 eigenvalues not converged
     c_bands:  2 eigenvalues not converged
     c_bands:  1 eigenvalues not converged
     c_bands:  1 eigenvalues not converged
     c_bands:  1 eigenvalues not converged
     c_bands:  2 eigenvalues not converged
     c_bands:  1 eigenvalues not converged
     c_bands:  1 eigenvalues not converged
     c_bands:  2 eigenvalues not converged
     c_bands:  2 eigenvalues not converged
     c_bands:  1 eigenvalues not converged
     c_bands:  1 eigenvalues not converged
     c_bands:  2 eigenvalues not converged
     c_bands:  1 eigenvalues not converged
     c_bands:  2 eigenvalues not converged
     c_bands:  2 eigenvalues not converged
     c_bands:  2 eigenvalues not converged
     c_bands:  2 eigenvalues not converged
     c_bands:  2 eigenvalues not converged
     ethr =  1.00E-06,  avg # of iterations = 15.5

[...]

     total energy              =   -5268.18911551 Ry
     estimated scf accuracy    <          1.2E-10 Ry

[...]

     iteration # 25     ecut=    71.00 Ry     beta= 0.30
     Davidson diagonalization with overlap
     ethr =  1.00E-13,  avg # of iterations =  1.5

[...]

     Magnetic moment per site:
     atom:    1    charge:   14.3624    magn:    2.0990    constr:    0.0000
     atom:    2    charge:   14.3624    magn:    2.0989    constr:    0.0000
     atom:    3    charge:   14.3624    magn:    2.0989    constr:    0.0000
     atom:    4    charge:   14.3624    magn:    2.0989    constr:    0.0000
     atom:    5    charge:   14.3624    magn:    2.0989    constr:    0.0000
     atom:    6    charge:   14.3624    magn:    2.0989    constr:    0.0000
     atom:    7    charge:   14.3624    magn:    2.0989    constr:    0.0000
     atom:    8    charge:   14.3624    magn:    2.0989    constr:    0.0000
     atom:    9    charge:   14.3624    magn:    2.0989    constr:    0.0000
     atom:   10    charge:   14.3624    magn:    2.0989    constr:    0.0000
     atom:   11    charge:   14.3624    magn:    2.0989    constr:    0.0000
     atom:   12    charge:   14.3624    magn:    2.0989    constr:    0.0000
     atom:   13    charge:   14.3624    magn:    2.0989    constr:    0.0000
     atom:   14    charge:   14.3624    magn:    2.0989    constr:    0.0000
     atom:   15    charge:   14.3624    magn:    2.0989    constr:    0.0000
     atom:   16    charge:   14.3624    magn:    2.0989    constr:    0.0000

     End of self-consistent calculation

 ------ SPIN UP ------------

[...]

 ------ SPIN DOWN ----------

[...]

          k = 0.3887-0.4997-0.4997 ( 11964 PWs)   bands (ev):

[...]

          k =-0.4997-0.4997-0.4997 ( 11992 PWs)   bands (ev):

   -66.5125 -66.5125 -66.5125 -66.5125 -66.5125 -66.5125 -66.5125 -66.5125
   -66.4522 -66.4522 -66.4522 -66.4522 -66.4522 -66.4522 -66.4522 -66.4522
   -32.7494 -32.7494 -32.7494 -32.7494 -32.7494 -32.7494 -32.7494 -32.7494
   -32.7494 -32.7494 -32.7494 -32.7494 -32.7494 -32.7494 -32.7494 -32.7494
   -32.7140 -32.7140 -32.7140 -32.7140 -32.7140 -32.7140 -32.7140 -32.7140
   -32.4798 -32.4798 -32.4798 -32.4798 -32.4798 -32.4798 -32.4798 -32.4798
   -32.4410 -32.4410 -32.4410 -32.4410 -32.4410 -32.4410 -32.4410 -32.4410
   -32.4410 -32.4410 -32.4410 -32.4410 -32.4410 -32.4409 -32.4409 -32.4409
    13.9602  13.9602  13.9602  13.9602  13.9602  13.9602  13.9602  13.9602
    16.9881  16.9881  16.9881  16.9881  16.9881  16.9881  16.9881  16.9881
    16.9881  16.9881  16.9881  16.9881  16.9881  16.9881  16.9882  16.9882
    17.3732  17.3732  17.3732  17.3732  17.3732  17.3732  17.3732  17.3732
    17.4755  17.4755  17.4755  17.4755  17.4755  17.4755  17.4755  17.4755
    17.4755  17.4755  17.4755  17.4755  17.4755  17.4755  17.4755  17.4755
    20.6221  20.6221  20.6221  20.6221  20.6221  20.6221  20.6221  20.6221
    20.6221  20.6221  20.6221  20.6221  20.6221  20.6221  20.6221  20.6221
    20.6555  20.6555  20.6555  20.6555  20.6555  20.6555  20.6555  20.6555
    20.6555  20.6555  20.6555  20.6555  20.6555  20.6555  20.6555  20.6555
    21.0047  21.0047  21.0047  21.0047  21.0047  21.0047  21.0047  21.0047
    27.3771  27.3771

     the Fermi energy is    19.0024 ev

!    total energy              =   -5268.18911551 Ry

     total all-electron energy =    -40728.933644 Ry
     estimated scf accuracy    <          2.7E-11 Ry
     smearing contrib. (-TS)   =       0.12365696 Ry
     internal energy E=F+TS    =   -5268.31277247 Ry

     The total energy is F=E-TS. E is the sum of the following terms:
     one-electron contribution =   -1705.69133037 Ry
     hartree contribution      =    1021.65382661 Ry
     xc contribution           =    -444.27294075 Ry
     ewald contribution        =   -2815.33099750 Ry
     one-center paw contrib.   =   -1324.67133046 Ry

     total magnetization       =    32.88 Bohr mag/cell
     absolute magnetization    =    34.64 Bohr mag/cell

     convergence has been achieved in  25 iterations

     negative rho (up, down):  0.000E+00 2.459E-03

     Forces acting on atoms (cartesian axes, Ry/au):

     atom    1 type  1   force =     0.00000000    0.00000000    0.00000000
     atom    2 type  2   force =    -0.00000130   -0.00000130   -0.00000130
     atom    3 type  1   force =     0.00000000    0.00000000    0.00000000
     atom    4 type  2   force =    -0.00000130   -0.00000130    0.00000130
     atom    5 type  1   force =     0.00000000    0.00000000    0.00000000
     atom    6 type  2   force =    -0.00000130    0.00000130   -0.00000130
     atom    7 type  1   force =     0.00000000    0.00000000    0.00000000
     atom    8 type  2   force =    -0.00000130    0.00000130    0.00000130
     atom    9 type  1   force =     0.00000000    0.00000000    0.00000000
     atom   10 type  2   force =     0.00000130   -0.00000130   -0.00000130
     atom   11 type  1   force =     0.00000000    0.00000000    0.00000000
     atom   12 type  2   force =     0.00000130   -0.00000130    0.00000130
     atom   13 type  1   force =     0.00000000    0.00000000    0.00000000
     atom   14 type  2   force =     0.00000130    0.00000130   -0.00000130
     atom   15 type  1   force =     0.00000000    0.00000000    0.00000000
     atom   16 type  2   force =     0.00000130    0.00000130    0.00000130

     Total force =     0.000006     Total SCF correction =     0.000023
     SCF correction compared to forces is large: reduce conv_thr to get better values

     Computing stress (Cartesian axis) and pressure

     negative rho (up, down):  0.000E+00 2.459E-03
          total   stress  (Ry/bohr**3)                   (kbar)     P=        0.29
   0.00000200   0.00000000   0.00000000            0.29        0.00        0.00
   0.00000000   0.00000200   0.00000000            0.00        0.29        0.00
   0.00000000   0.00000000   0.00000200            0.00        0.00        0.29

     Writing output data file /scratch/ferelaxbcc.save/

     General routines

     Parallel routines

   This run was terminated on:  14:10:57  14Mar2022

   JOB DONE.