     Program PWSCF v.6.7MaX starts on 14Mar2022 at 14:11:28

     R & G space division:  proc/nbgrp/npool/nimage =      72
     Reading input from relax.in

     Current dimensions of program PWSCF are:
     Max number of different atomic species (ntypx) = 10
     Max number of k-points (npk) =  40000
     Max angular momentum in pseudopotentials (lmaxx) =  3
     file Ru.pbe-spn-kjpaw_psl.1.0.0.UPF: wavefunction(s)  4D renormalized

     Subspace diagonalization in iterative solution of the eigenvalue problem:
     one sub-group per band group will be used

     Found symmetry operation: I + (  0.0000  0.0000  0.5000)
     This is a supercell, fractional translations are disabled

     bravais-lattice index     =            4
     lattice parameter (alat)  =      10.2300  a.u.
     unit-cell volume          =    1467.0549 (a.u.)^3
     number of atoms/cell      =           16
     number of atomic types    =            1
     number of electrons       =       256.00
     number of Kohn-Sham states=          154
     kinetic-energy cutoff     =      71.0000  Ry
     charge density cutoff     =     430.0000  Ry
     scf convergence threshold =      1.0E-08
     mixing beta               =       0.3000
     number of iterations used =           10  plain     mixing
     energy convergence thresh.=      1.0E-04
     force convergence thresh. =      1.0E-03
     press convergence thresh. =      5.0E-01
     Exchange-correlation= SLA  PW   PBX  PBC
                           (   1   4   3   4   0   0   0)
     nstep                     =           60

     celldm(1)=  10.230000  celldm(2)=   0.000000  celldm(3)=   1.582300
     celldm(4)=   0.000000  celldm(5)=   0.000000  celldm(6)=   0.000000

     crystal axes: (cart. coord. in units of alat)
               a(1) = (   1.000000   0.000000   0.000000 )
               a(2) = (  -0.500000   0.866025   0.000000 )
               a(3) = (   0.000000   0.000000   1.582300 )

     reciprocal axes: (cart. coord. in units 2 pi/alat)
               b(1) = (  1.000000  0.577350  0.000000 )
               b(2) = (  0.000000  1.154701  0.000000 )
               b(3) = (  0.000000  0.000000  0.631991 )

     PseudoPot. # 1 for Ru read from file:
     /rds/homes/b/bxp912/pp/Ru.pbe-spn-kjpaw_psl.1.0.0.UPF
     MD5 check sum: 0ae1f594dea09af7be8575c3a481d1ae
     Pseudo is Projector augmented-wave + core cor, Zval = 16.0
     Generated using "atomic" code by A. Dal Corso  v.5.1
     Shape of augmentation charge: PSQ
     Using radial grid of 1233 points,  6 beta functions with:
                l(1) =   0
                l(2) =   0
                l(3) =   1
                l(4) =   1
                l(5) =   2
                l(6) =   2
     Q(r) pseudized with 0 coefficients

     atomic species   valence    mass     pseudopotential
        Ru            16.00   101.07000     Ru( 1.00)

      4 Sym. Ops., with inversion, found

   Cartesian axes

     site n.     atom                  positions (alat units)
         1           Ru  tau(   1) = (   0.1250001   0.0721688   0.1977875  )
         2           Ru  tau(   2) = (   0.1249999   0.3608439   0.5933625  )
         3           Ru  tau(   3) = (   0.1250001   0.0721688   0.9889375  )
         4           Ru  tau(   4) = (   0.1249999   0.3608439   1.3845125  )
         5           Ru  tau(   5) = (  -0.1250000   0.5051815   0.1977875  )
         6           Ru  tau(   6) = (  -0.1250000   0.7938566   0.5933625  )
         7           Ru  tau(   7) = (  -0.1250000   0.5051815   0.9889375  )
         8           Ru  tau(   8) = (  -0.1250000   0.7938566   1.3845125  )
         9           Ru  tau(   9) = (   0.6250000   0.0721688   0.1977875  )
        10           Ru  tau(  10) = (   0.6250000   0.3608439   0.5933625  )
        11           Ru  tau(  11) = (   0.6250000   0.0721688   0.9889375  )
        12           Ru  tau(  12) = (   0.6250000   0.3608439   1.3845125  )
        13           Ru  tau(  13) = (   0.3750000   0.5051815   0.1977875  )
        14           Ru  tau(  14) = (   0.3750000   0.7938566   0.5933625  )
        15           Ru  tau(  15) = (   0.3750000   0.5051815   0.9889375  )
        16           Ru  tau(  16) = (   0.3750000   0.7938566   1.3845125  )

     number of k points=   378  Marzari-Vanderbilt smearing, width (Ry)=  0.0400

     Number of k-points >= 100: set verbosity='high' to print them.

     Check: negative core charge=   -0.000002

     Initial potential from superposition of free atoms

     starting charge  255.98980, renormalised to  256.00000
     Starting wfcs are  160 randomized atomic wfcs
     Checking if some PAW data can be deallocated...

     Self-consistent Calculation

     iteration #  1     ecut=    71.00 Ry     beta= 0.30
     Davidson diagonalization with overlap
     ethr =  1.00E-02,  avg # of iterations =  3.7

     Threshold (ethr) on eigenvalues was too large:
     Diagonalizing with lowered threshold

     Davidson diagonalization with overlap
     ethr =  9.86E-05,  avg # of iterations =  4.7

     total energy              =   -6906.76154163 Ry
     estimated scf accuracy    <       0.34392005 Ry

[...]

     End of self-consistent calculation

     Number of k-points >= 100: set verbosity='high' to print the bands.

     the Fermi energy is    23.7048 ev

!    total energy              =   -6906.78427686 Ry

     total all-electron energy =   -144994.979446 Ry
     estimated scf accuracy    <          8.8E-09 Ry
     smearing contrib. (-TS)   =       0.01217085 Ry
     internal energy E=F+TS    =   -6906.79644771 Ry

     The total energy is F=E-TS. E is the sum of the following terms:
     one-electron contribution =    -476.14515955 Ry
     hartree contribution      =     451.48643113 Ry
     xc contribution           =    -464.33891769 Ry
     ewald contribution        =   -2623.06461692 Ry
     one-center paw contrib.   =   -3794.73418468 Ry

     convergence has been achieved in  13 iterations

     Forces acting on atoms (cartesian axes, Ry/au):

     atom    1 type  1   force =     0.00000137    0.00000079   -0.00001346
     atom    2 type  1   force =     0.00000766    0.00000073   -0.00001496
     atom    3 type  1   force =     0.00000375    0.00000216    0.00001275
     atom    4 type  1   force =     0.00000794   -0.00000461    0.00000976
     atom    5 type  1   force =     0.00000569    0.00000328   -0.00000339
     atom    6 type  1   force =     0.00000447    0.00000627   -0.00001496
     atom    7 type  1   force =     0.00000625    0.00000361    0.00000512
     atom    8 type  1   force =    -0.00000002    0.00000918    0.00000976
     atom    9 type  1   force =     0.00000002   -0.00000918   -0.00000976
     atom   10 type  1   force =    -0.00000625   -0.00000361   -0.00000512
     atom   11 type  1   force =    -0.00000447   -0.00000627    0.00001496
     atom   12 type  1   force =    -0.00000569   -0.00000328    0.00000339
     atom   13 type  1   force =    -0.00000794    0.00000461   -0.00000976
     atom   14 type  1   force =    -0.00000375   -0.00000216   -0.00001275
     atom   15 type  1   force =    -0.00000766   -0.00000073    0.00001496
     atom   16 type  1   force =    -0.00000137   -0.00000079    0.00001346

     Total force =     0.000053     Total SCF correction =     0.000189
     SCF correction compared to forces is large: reduce conv_thr to get better values

     Computing stress (Cartesian axis) and pressure

          total   stress  (Ry/bohr**3)                   (kbar)     P=       36.22
   0.00027615  -0.00000000   0.00000000           40.62       -0.00        0.00
  -0.00000000   0.00027615   0.00000000           -0.00       40.62        0.00
   0.00000000   0.00000000   0.00018634            0.00        0.00       27.41

     BFGS Geometry Optimization
     Energy error            =      0.0E+00
     Gradient error          =      1.5E-05
     Cell gradient error     =      2.8E-04

     number of scf cycles    =   1
     number of bfgs steps    =   0

     enthalpy new            =   -6906.7842768594 Ry

     new trust radius        =       0.0528859815 bohr
     new conv_thr            =       0.0000000100 Ry

     new unit-cell volume =   1494.31007 a.u.^3 (   221.43391 Ang^3 )
     density =     12.12683 g/cm^3

CELL_PARAMETERS (alat= 10.23000000)
   1.006903664  -0.000000107   0.000000076
  -0.503451924   0.872004312   0.000000000
   0.000000120   0.000000069   1.589671157

ATOMIC_POSITIONS (crystal)
Ru            0.1666668780        0.0833333890        0.1249991683
Ru            0.3333340907        0.4166667829        0.3749990759
Ru            0.1666671881        0.0833335441        0.6250007876
Ru            0.3333338160        0.4166661800        0.8750006030
Ru            0.1666674413        0.5833336707        0.1249997908
Ru            0.3333340907        0.9166674078        0.3749990759
Ru            0.1666675142        0.5833337071        0.6250003166
Ru            0.3333338160        0.9166677360        0.8750006030
Ru            0.6666661840        0.0833322640        0.1249993970
Ru            0.8333324858        0.4166662929        0.3749996834
Ru            0.6666659093        0.0833325922        0.6250009241
Ru            0.8333325587        0.4166663293        0.8750002092
Ru            0.6666661840        0.5833338200        0.1249993970
Ru            0.8333328119        0.9166664559        0.3749992124
Ru            0.6666659093        0.5833332171        0.6250009241
Ru            0.8333331220        0.9166666110        0.8750008317

     Writing output data file /scratch/bxp912/ruhcp3.save/
     NEW-OLD atomic charge density approx. for the potential

     Check: negative core charge=   -0.000003
     extrapolated charge  260.66908, renormalised to  256.00000

[...]

     Energy error            =      1.3E-03
     Gradient error          =      5.1E-06
     Cell gradient error     =      1.8E-04

[...]

     enthalpy old            =   -6906.7842768594 Ry
     enthalpy new            =   -6906.7855349402 Ry

     CASE: enthalpy_new < enthalpy_old

[...]

     number of scf cycles    =   3
     number of bfgs steps    =   2

     enthalpy old            =   -6906.7855349402 Ry
     enthalpy new            =   -6906.7864057793 Ry

     CASE: enthalpy_new < enthalpy_old

     new trust radius        =       0.0017987932 bohr
     new conv_thr            =            1.0E-10 Ry

     new unit-cell volume =   1483.45134 a.u.^3 (   219.82481 Ang^3 )
     density =     12.21560 g/cm^3

[...]

ATOMIC_POSITIONS (crystal)
Ru            0.1666666957        0.0833332979        0.1249995597
Ru            0.3333337002        0.4166666998        0.3749994864
Ru            0.1666668254        0.0833333627        0.6250003559
Ru            0.3333334900        0.4166664299        0.8750003588
Ru            0.1666669105        0.5833334053        0.1249997698
Ru            0.3333337002        0.9166671004        0.3749994864
Ru            0.1666670754        0.5833334877        0.6250002451
Ru            0.3333334900        0.9166671602        0.8750003588
Ru            0.6666665100        0.0833328398        0.1249996412
Ru            0.8333329246        0.4166665123        0.3749997549
Ru            0.6666662998        0.0833328996        0.6250005136
Ru            0.8333330895        0.4166665947        0.8750002302
Ru            0.6666665100        0.5833335701        0.1249996412
Ru            0.8333331746        0.9166666373        0.3749996441
Ru            0.6666662998        0.5833333002        0.6250005136
Ru            0.8333333043        0.9166667021        0.8750004403

     Writing output data file /scratch/bxp912/ruhcp3.save/
     NEW-OLD atomic charge density approx. for the potential

     Check: negative core charge=   -0.000003
     extrapolated charge  255.95114, renormalised to  256.00000

[...]

     Threshold (ethr) on eigenvalues was too large:
     Diagonalizing with lowered threshold

     Davidson diagonalization with overlap
     ethr =  1.31E-08,  avg # of iterations =  1.7

[...]

     Total force =     0.000009     Total SCF correction =     0.000000

[...]

     Energy error            =      2.0E-06
     Gradient error          =      2.7E-06
     Cell gradient error     =      8.4E-07

     bfgs converged in   4 scf cycles and   3 bfgs steps
     (criteria: energy <  1.0E-04 Ry, force <  1.0E-03Ry/Bohr, cell <  5.0E-01kbar)

     End of BFGS Geometry Optimization

     Final enthalpy =   -6906.7864078084 Ry

     File /scratch/bxp912/ruhcp3.bfgs deleted, as requested
Begin final coordinates
     new unit-cell volume =   1483.45134 a.u.^3 (   219.82481 Ang^3 )
     density =     12.21560 g/cm^3

CELL_PARAMETERS (alat= 10.23000000)
   1.004764036  -0.000000011   0.000000012
  -0.502382028   0.870151197  -0.000000000
   0.000000019   0.000000011   1.584847958

ATOMIC_POSITIONS (crystal)
Ru            0.1666666957        0.0833332979        0.1249995597
Ru            0.3333337002        0.4166666998        0.3749994864
Ru            0.1666668254        0.0833333627        0.6250003559
Ru            0.3333334900        0.4166664299        0.8750003588
Ru            0.1666669105        0.5833334053        0.1249997698
Ru            0.3333337002        0.9166671004        0.3749994864
Ru            0.1666670754        0.5833334877        0.6250002451
Ru            0.3333334900        0.9166671602        0.8750003588
Ru            0.6666665100        0.0833328398        0.1249996412
Ru            0.8333329246        0.4166665123        0.3749997549
Ru            0.6666662998        0.0833328996        0.6250005136
Ru            0.8333330895        0.4166665947        0.8750002302
Ru            0.6666665100        0.5833335701        0.1249996412
Ru            0.8333331746        0.9166666373        0.3749996441
Ru            0.6666662998        0.5833333002        0.6250005136
Ru            0.8333333043        0.9166667021        0.8750004403
End final coordinates

     Writing output data file /scratch/bxp912/ruhcp3.save/

     Final scf calculation at the relaxed structure.
     The G-vectors are recalculated for the final unit cell
     Results may differ from those at the preceding step.

     bravais-lattice index     =            4
     lattice parameter (alat)  =      10.2300  a.u.
     unit-cell volume          =    1483.4513 (a.u.)^3
     number of atoms/cell      =           16
     number of atomic types    =            1
     number of electrons       =       256.00
     number of Kohn-Sham states=          154
     kinetic-energy cutoff     =      71.0000  Ry
     charge density cutoff     =     430.0000  Ry
     scf convergence threshold =      1.0E-10
     mixing beta               =       0.3000
     number of iterations used =           10  plain     mixing
     press convergence thresh. =      5.0E-01
     Exchange-correlation= SLA  PW   PBX  PBC
                           (   1   4   3   4   0   0   0)

     celldm(1)=  10.230000  celldm(2)=   0.000000  celldm(3)=   1.582300
     celldm(4)=   0.000000  celldm(5)=   0.000000  celldm(6)=   0.000000

     crystal axes: (cart. coord. in units of alat)
               a(1) = (   1.004764  -0.000000   0.000000 )
               a(2) = (  -0.502382   0.870151  -0.000000 )
               a(3) = (   0.000000   0.000000   1.584848 )

     reciprocal axes: (cart. coord. in units 2 pi/alat)
               b(1) = (  0.995259  0.574613 -0.000000 )
               b(2) = (  0.000000  1.149226 -0.000000 )
               b(3) = ( -0.000000 -0.000000  0.630975 )

     PseudoPot. # 1 for Ru read from file:
     /rds/homes/b/bxp912/pp/Ru.pbe-spn-kjpaw_psl.1.0.0.UPF
     MD5 check sum: 0ae1f594dea09af7be8575c3a481d1ae
     Pseudo is Projector augmented-wave + core cor, Zval = 16.0
     Generated using "atomic" code by A. Dal Corso  v.5.1
     Shape of augmentation charge: PSQ
     Using radial grid of 1233 points,  6 beta functions with:
                l(1) =   0
                l(2) =   0
                l(3) =   1
                l(4) =   1
                l(5) =   2
                l(6) =   2
     Q(r) pseudized with 0 coefficients

     atomic species   valence    mass     pseudopotential
        Ru            16.00   101.07000     Ru( 1.00)

      4 Sym. Ops., with inversion, found

   Cartesian axes

     site n.     atom                  positions (alat units)
         1           Ru  tau(   1) = (   0.1255956   0.0725126   0.1981053  )
         2           Ru  tau(   2) = (   0.1255959   0.3625630   0.5943172  )
         3           Ru  tau(   3) = (   0.1255957   0.0725126   0.9905305  )
         4           Ru  tau(   4) = (   0.1255958   0.3625628   1.3867425  )
         5           Ru  tau(   5) = (  -0.1255953   0.5075883   0.1981056  )
         6           Ru  tau(   6) = (  -0.1255954   0.7976390   0.5943172  )
         7           Ru  tau(   7) = (  -0.1255952   0.5075883   0.9905304  )
         8           Ru  tau(   8) = (  -0.1255956   0.7976390   1.3867425  )
         9           Ru  tau(   9) = (   0.6279776   0.0725122   0.1981054  )
        10           Ru  tau(  10) = (   0.6279772   0.3625629   0.5943176  )
        11           Ru  tau(  11) = (   0.6279774   0.0725122   0.9905308  )
        12           Ru  tau(  12) = (   0.6279773   0.3625629   1.3867423  )
        13           Ru  tau(  13) = (   0.3767862   0.5075884   0.1981054  )
        14           Ru  tau(  14) = (   0.3767864   0.7976386   0.5943174  )
        15           Ru  tau(  15) = (   0.3767862   0.5075882   0.9905308  )
        16           Ru  tau(  16) = (   0.3767865   0.7976386   1.3867427  )

     number of k points=   378  Marzari-Vanderbilt smearing, width (Ry)=  0.0400

     Number of k-points >= 100: set verbosity='high' to print them.

     Check: negative core charge=   -0.000002

     Initial potential from superposition of free atoms

     starting charge  255.98980, renormalised to  256.00000
     Starting wfcs are  160 randomized atomic wfcs
     Checking if some PAW data can be deallocated...

     Self-consistent Calculation

     iteration #  1     ecut=    71.00 Ry     beta= 0.30
     Davidson diagonalization with overlap
     c_bands:  1 eigenvalues not converged
     c_bands:  1 eigenvalues not converged
     c_bands:  1 eigenvalues not converged
     c_bands:  1 eigenvalues not converged
     c_bands:  1 eigenvalues not converged
     c_bands:  1 eigenvalues not converged
     c_bands:  1 eigenvalues not converged
     c_bands:  1 eigenvalues not converged
     c_bands:  1 eigenvalues not converged
     c_bands:  1 eigenvalues not converged
     c_bands:  1 eigenvalues not converged
     c_bands:  1 eigenvalues not converged
     c_bands:  1 eigenvalues not converged
     c_bands:  1 eigenvalues not converged
     c_bands:  1 eigenvalues not converged
     c_bands:  1 eigenvalues not converged
     c_bands:  1 eigenvalues not converged
     c_bands:  1 eigenvalues not converged
     c_bands:  1 eigenvalues not converged
     c_bands:  1 eigenvalues not converged
     c_bands:  1 eigenvalues not converged
     c_bands:  1 eigenvalues not converged
     c_bands:  1 eigenvalues not converged
     c_bands:  1 eigenvalues not converged
     c_bands:  1 eigenvalues not converged
     c_bands:  1 eigenvalues not converged
     c_bands:  1 eigenvalues not converged
     c_bands:  1 eigenvalues not converged
     c_bands:  1 eigenvalues not converged
     ethr =  1.00E-06,  avg # of iterations = 13.4

[...]

     total energy              =   -6906.78722233 Ry
     estimated scf accuracy    <          4.3E-10 Ry

     iteration # 17     ecut=    71.00 Ry     beta= 0.30
     Davidson diagonalization with overlap
     ethr =  1.68E-13,  avg # of iterations =  1.0

     End of self-consistent calculation

     Number of k-points >= 100: set verbosity='high' to print the bands.

     the Fermi energy is    23.3830 ev

!    total energy              =   -6906.78722233 Ry

     total all-electron energy =   -144994.982392 Ry
     estimated scf accuracy    <          1.5E-11 Ry
     smearing contrib. (-TS)   =       0.01281469 Ry
     internal energy E=F+TS    =   -6906.80003702 Ry

     The total energy is F=E-TS. E is the sum of the following terms:
     one-electron contribution =    -490.41633060 Ry
     hartree contribution      =     455.75160415 Ry
     xc contribution           =    -464.12033563 Ry
     ewald contribution        =   -2613.28902510 Ry
     one-center paw contrib.   =   -3794.72594984 Ry

     convergence has been achieved in  17 iterations

     Forces acting on atoms (cartesian axes, Ry/au):

     atom    1 type  1   force =    -0.00000016   -0.00000009    0.00000330
     atom    2 type  1   force =    -0.00000083    0.00000019    0.00000347
     atom    3 type  1   force =    -0.00000043   -0.00000025   -0.00000289
     atom    4 type  1   force =    -0.00000095    0.00000094   -0.00000279
     atom    5 type  1   force =    -0.00000073   -0.00000042    0.00000201
     atom    6 type  1   force =    -0.00000025   -0.00000081    0.00000347
     atom    7 type  1   force =    -0.00000085   -0.00000049   -0.00000202
     atom    8 type  1   force =     0.00000034   -0.00000129   -0.00000279
     atom    9 type  1   force =    -0.00000034    0.00000129    0.00000279
     atom   10 type  1   force =     0.00000085    0.00000049    0.00000202
     atom   11 type  1   force =     0.00000025    0.00000081   -0.00000347
     atom   12 type  1   force =     0.00000073    0.00000042   -0.00000201
     atom   13 type  1   force =     0.00000095   -0.00000094    0.00000279
     atom   14 type  1   force =     0.00000043    0.00000025    0.00000289
     atom   15 type  1   force =     0.00000083   -0.00000019   -0.00000347
     atom   16 type  1   force =     0.00000016    0.00000009   -0.00000330

     Total force =     0.000012     Total SCF correction =     0.000013
     SCF correction compared to forces is large: reduce conv_thr to get better values

     Computing stress (Cartesian axis) and pressure

          total   stress  (Ry/bohr**3)                   (kbar)     P=        0.35
   0.00000326   0.00000000  -0.00000000            0.48        0.00       -0.00
   0.00000000   0.00000326  -0.00000000            0.00        0.48       -0.00
  -0.00000000  -0.00000000   0.00000064           -0.00       -0.00        0.09

     Writing output data file /scratch/bxp912/ruhcp3.save/

     General routines

     Parallel routines

   This run was terminated on:  16:35:43  14Mar2022

   JOB DONE.