     Program PWSCF v.6.7MaX starts on  7Mar2022 at  8:20: 3

     R & G space division:  proc/nbgrp/npool/nimage =      72
     Reading input from relaxed.in

     Current dimensions of program PWSCF are:
     Max number of different atomic species (ntypx) = 10
     Max number of k-points (npk) =  40000
     Max angular momentum in pseudopotentials (lmaxx) =  3
     file Ru.pbe-spn-kjpaw_psl.1.0.0.UPF: wavefunction(s)  4D renormalized

     Subspace diagonalization in iterative solution of the eigenvalue problem:
     one sub-group per band group will be used

     Found symmetry operation: I + (  0.2500  0.2500  0.0000)
     This is a supercell, fractional translations are disabled
     Message from routine setup:
     using ibrav=0 with symmetry is DISCOURAGED, use correct ibrav instead

     bravais-lattice index     =            0
     lattice parameter (alat)  =      14.4000  a.u.
     unit-cell volume          =    2985.9840 (a.u.)^3
     number of atoms/cell      =           32
     number of atomic types    =            1
     number of electrons       =       512.00
     number of Kohn-Sham states=          307
     kinetic-energy cutoff     =      71.0000  Ry
     charge density cutoff     =     430.0000  Ry
     scf convergence threshold =      1.0E-08
     mixing beta               =       0.3000
     number of iterations used =           10  plain     mixing
     energy convergence thresh.=      1.0E-04
     force convergence thresh. =      1.0E-03
     press convergence thresh. =      5.0E-01
     Exchange-correlation= SLA  PW   PBX  PBC
                           (   1   4   3   4   0   0   0)
     nstep                     =           60

     celldm(1)=  14.400000  celldm(2)=   0.000000  celldm(3)=   0.000000
     celldm(4)=   0.000000  celldm(5)=   0.000000  celldm(6)=   0.000000

     crystal axes: (cart. coord. in units of alat)
               a(1) = (   1.000000   0.000000   0.000000 )
               a(2) = (   0.000000   1.000000   0.000000 )
               a(3) = (   0.000000   0.000000   1.000000 )

     reciprocal axes: (cart. coord. in units 2 pi/alat)
               b(1) = (  1.000000  0.000000  0.000000 )
               b(2) = (  0.000000  1.000000  0.000000 )
               b(3) = (  0.000000  0.000000  1.000000 )

     PseudoPot. # 1 for Ru read from file:
     /rds/homes/b/bxp912/pp/Ru.pbe-spn-kjpaw_psl.1.0.0.UPF
     MD5 check sum: 0ae1f594dea09af7be8575c3a481d1ae
     Pseudo is Projector augmented-wave + core cor, Zval = 16.0
     Generated using "atomic" code by A. Dal Corso  v.5.1
     Shape of augmentation charge: PSQ
     Using radial grid of 1233 points,  6 beta functions with:
                l(1) =   0
                l(2) =   0
                l(3) =   1
                l(4) =   1
                l(5) =   2
                l(6) =   2
     Q(r) pseudized with 0 coefficients

     atomic species   valence    mass     pseudopotential
        Ru            16.00   101.07000     Ru( 1.00)

     48 Sym. Ops., with inversion, found

   Cartesian axes

     site n.     atom                  positions (alat units)
         1           Ru  tau(   1) = (   0.0000000   0.0000000   0.0000000  )
         2           Ru  tau(   2) = (   0.2500000   0.2500000   0.0000000  )
         3           Ru  tau(   3) = (   0.2500000   0.0000000   0.2500000  )
         4           Ru  tau(   4) = (   0.0000000   0.2500000   0.2500000  )
         5           Ru  tau(   5) = (   0.0000000   0.0000000   0.5000000  )
         6           Ru  tau(   6) = (   0.2500000   0.2500000   0.5000000  )
         7           Ru  tau(   7) = (   0.2500000   0.0000000   0.7500000  )
         8           Ru  tau(   8) = (   0.0000000   0.2500000   0.7500000  )
         9           Ru  tau(   9) = (   0.0000000   0.5000000   0.0000000  )
        10           Ru  tau(  10) = (   0.2500000   0.7500000   0.0000000  )
        11           Ru  tau(  11) = (   0.2500000   0.5000000   0.2500000  )
        12           Ru  tau(  12) = (   0.0000000   0.7500000   0.2500000  )
        13           Ru  tau(  13) = (   0.0000000   0.5000000   0.5000000  )
        14           Ru  tau(  14) = (   0.2500000   0.7500000   0.5000000  )
        15           Ru  tau(  15) = (   0.2500000   0.5000000   0.7500000  )
        16           Ru  tau(  16) = (   0.0000000   0.7500000   0.7500000  )
        17           Ru  tau(  17) = (   0.5000000   0.0000000   0.0000000  )
        18           Ru  tau(  18) = (   0.7500000   0.2500000   0.0000000  )
        19           Ru  tau(  19) = (   0.7500000   0.0000000   0.2500000  )
        20           Ru  tau(  20) = (   0.5000000   0.2500000   0.2500000  )
        21           Ru  tau(  21) = (   0.5000000   0.0000000   0.5000000  )
        22           Ru  tau(  22) = (   0.7500000   0.2500000   0.5000000  )
        23           Ru  tau(  23) = (   0.7500000   0.0000000   0.7500000  )
        24           Ru  tau(  24) = (   0.5000000   0.2500000   0.7500000  )
        25           Ru  tau(  25) = (   0.5000000   0.5000000   0.0000000  )
        26           Ru  tau(  26) = (   0.7500000   0.7500000   0.0000000  )
        27           Ru  tau(  27) = (   0.7500000   0.5000000   0.2500000  )
        28           Ru  tau(  28) = (   0.5000000   0.7500000   0.2500000  )
        29           Ru  tau(  29) = (   0.5000000   0.5000000   0.5000000  )
        30           Ru  tau(  30) = (   0.7500000   0.7500000   0.5000000  )
        31           Ru  tau(  31) = (   0.7500000   0.5000000   0.7500000  )
        32           Ru  tau(  32) = (   0.5000000   0.7500000   0.7500000  )

     number of k points=    35  Marzari-Vanderbilt smearing, width (Ry)=  0.0400
                       cart. coord. in units 2pi/alat
        k(    1) = (   0.0555556   0.0555556   0.0555556), wk =   0.0219479
        k(    2) = (   0.0555556   0.0555556   0.1666667), wk =   0.0658436
        k(    3) = (   0.0555556   0.0555556   0.2777778), wk =   0.0658436
        k(    4) = (   0.0555556   0.0555556   0.3888889), wk =   0.0658436
        k(    5) = (   0.0555556   0.0555556  -0.5000000), wk =   0.0329218
        k(    6) = (   0.0555556   0.1666667   0.1666667), wk =   0.0658436
        k(    7) = (   0.0555556   0.1666667   0.2777778), wk =   0.1316872
        k(    8) = (   0.0555556   0.1666667   0.3888889), wk =   0.1316872
        k(    9) = (   0.0555556   0.1666667  -0.5000000), wk =   0.0658436
        k(   10) = (   0.0555556   0.2777778   0.2777778), wk =   0.0658436
        k(   11) = (   0.0555556   0.2777778   0.3888889), wk =   0.1316872
        k(   12) = (   0.0555556   0.2777778  -0.5000000), wk =   0.0658436
        k(   13) = (   0.0555556   0.3888889   0.3888889), wk =   0.0658436
        k(   14) = (   0.0555556   0.3888889  -0.5000000), wk =   0.0658436
        k(   15) = (   0.0555556  -0.5000000  -0.5000000), wk =   0.0164609
        k(   16) = (   0.1666667   0.1666667   0.1666667), wk =   0.0219479
        k(   17) = (   0.1666667   0.1666667   0.2777778), wk =   0.0658436
        k(   18) = (   0.1666667   0.1666667   0.3888889), wk =   0.0658436
        k(   19) = (   0.1666667   0.1666667  -0.5000000), wk =   0.0329218
        k(   20) = (   0.1666667   0.2777778   0.2777778), wk =   0.0658436
        k(   21) = (   0.1666667   0.2777778   0.3888889), wk =   0.1316872
        k(   22) = (   0.1666667   0.2777778  -0.5000000), wk =   0.0658436
        k(   23) = (   0.1666667   0.3888889   0.3888889), wk =   0.0658436
        k(   24) = (   0.1666667   0.3888889  -0.5000000), wk =   0.0658436
        k(   25) = (   0.1666667  -0.5000000  -0.5000000), wk =   0.0164609
        k(   26) = (   0.2777778   0.2777778   0.2777778), wk =   0.0219479
        k(   27) = (   0.2777778   0.2777778   0.3888889), wk =   0.0658436
        k(   28) = (   0.2777778   0.2777778  -0.5000000), wk =   0.0329218
        k(   29) = (   0.2777778   0.3888889   0.3888889), wk =   0.0658436
        k(   30) = (   0.2777778   0.3888889  -0.5000000), wk =   0.0658436
        k(   31) = (   0.2777778  -0.5000000  -0.5000000), wk =   0.0164609
        k(   32) = (   0.3888889   0.3888889   0.3888889), wk =   0.0219479
        k(   33) = (   0.3888889   0.3888889  -0.5000000), wk =   0.0329218
        k(   34) = (   0.3888889  -0.5000000  -0.5000000), wk =   0.0164609
        k(   35) = (  -0.5000000  -0.5000000  -0.5000000), wk =   0.0027435

     Check: negative core charge=   -0.000002

     Initial potential from superposition of free atoms

     starting charge  511.97959, renormalised to  512.00000
     Starting wfcs are  320 randomized atomic wfcs
     Checking if some PAW data can be deallocated...

     Self-consistent Calculation

     iteration #  1     ecut=    71.00 Ry     beta= 0.30
     Davidson diagonalization with overlap
     ethr =  1.00E-02,  avg # of iterations =  3.4

     Threshold (ethr) on eigenvalues was too large:
     Diagonalizing with lowered threshold

     Davidson diagonalization with overlap
     ethr =  8.35E-05,  avg # of iterations =  5.4

     total energy              =  -13813.25355714 Ry
     estimated scf accuracy    <       0.63782328 Ry

[...]

     End of self-consistent calculation

          k = 0.0556 0.0556 0.0556 ( 30224 PWs)   bands (ev):

   -49.9034 -49.8035 -49.8035 -49.8035 -49.7842 -49.7842 -49.7842 -49.7482
   -49.7482 -49.7482 -49.7388 -49.7376 -49.7376 -49.7376 -49.7376 -49.7376
   -49.7376 -49.7371 -49.7371 -49.7371 -49.7288 -49.7288 -49.7288 -49.6833
   -49.6833 -49.6833 -49.6828 -49.6828 -49.6828 -49.6828 -49.6828 -49.6828
   -20.3085 -20.3085 -20.3085 -20.3043 -20.2457 -20.2457 -20.2457 -20.0452
   -20.0452 -20.0452 -20.0338 -20.0338 -20.0338 -20.0338 -20.0338 -20.0338
   -20.0136 -20.0136 -20.0136 -19.9909 -19.9909 -19.9909 -19.9909 -19.9909
   -19.9909 -19.9402 -19.9402 -19.9402 -19.9402 -19.9402 -19.9402 -19.8408
   -19.8408 -19.8408 -19.7676 -19.7676 -19.7676 -19.7598 -19.7598 -19.7598
   -19.7260 -19.7260 -19.7260 -19.7260 -19.7260 -19.7260 -19.6858 -19.6858
   -19.6858 -19.6789 -19.6789 -19.6789 -19.6789 -19.6789 -19.6789 -19.6731
   -19.6731 -19.6731 -19.6686 -19.6686 -19.6686 -19.5059 -19.5059 -19.5059
   -19.5053 -19.5053 -19.5053 -19.4736 -19.4736 -19.4736 -19.4735 -19.4735
   -19.4735 -19.4586 -19.4586 -19.4586 -19.4463 -19.4463 -19.4463 -19.4453
   -19.4453 -19.4453 -19.4453 -19.4453 -19.4453 -19.4433 -19.4433 -19.4433
   -19.4404 -19.4404 -19.4268 -19.4268 -19.4268 -19.3138 -19.3069 -19.3069
    15.3475  16.9041  16.9041  16.9041  17.1843  17.2020  17.2021  17.2021
    17.3726  17.3726  17.3726  17.6016  17.6016  17.6016  17.7728  17.7728
    17.7728  18.3135  18.3135  18.3135  18.3135  18.3135  18.3135  18.6291
    18.6291  18.6291  18.8964  18.8964  18.8964  18.9023  18.9023  18.9023
    19.0018  19.0018  19.0018  19.0056  19.0056  19.0056  19.0056  19.0056
    19.0056  19.4960  19.4960  19.4960  19.4960  19.4960  19.4960  19.6403
    19.6403  19.6403  19.6721  19.6722  19.6722  19.6722  19.6722  19.6722
    19.7365  19.7365  19.7365  19.9999  20.0000  20.0000  20.0010  20.0010
    20.0010  20.0010  20.0010  20.0010  20.0015  20.0015  20.0015  20.0015
[...]
Ru            0.2499998159        0.7500001841        0.0000000000
Ru            0.2499998571        0.5000000000        0.2499998571
Ru           -0.0000000000        0.7500001841        0.2499998159
Ru            0.0000000000        0.5000000000        0.5000000000
Ru            0.2499998571        0.7500001429        0.5000000000
Ru            0.2499998571        0.5000000000        0.7500001429
Ru            0.0000000000        0.7500001841        0.7500001841
Ru            0.5000000000        0.0000000000        0.0000000000
Ru            0.7500001841        0.2499998159       -0.0000000000
Ru            0.7500001841        0.0000000000        0.2499998159
Ru            0.5000000000        0.2499998571        0.2499998571
Ru            0.5000000000        0.0000000000        0.5000000000
Ru            0.7500001429        0.2499998571        0.5000000000
Ru            0.7500001841        0.0000000000        0.7500001841
Ru            0.5000000000        0.2499998571        0.7500001429
Ru            0.5000000000        0.5000000000        0.0000000000
Ru            0.7500001841        0.7500001841        0.0000000000
Ru            0.7500001429        0.5000000000        0.2499998571
Ru            0.5000000000        0.7500001429        0.2499998571
Ru            0.5000000000        0.5000000000        0.5000000000
Ru            0.7500001429        0.7500001429        0.5000000000
Ru            0.7500001429        0.5000000000        0.7500001429
Ru            0.5000000000        0.7500001429        0.7500001429
End final coordinates

     Writing output data file /scratch/rurelax.save/

     Final scf calculation at the relaxed structure.
     The G-vectors are recalculated for the final unit cell
     Results may differ from those at the preceding step.

     bravais-lattice index     =            0
     lattice parameter (alat)  =      14.4000  a.u.
     unit-cell volume          =    2982.2718 (a.u.)^3
     number of atoms/cell      =           32
     number of atomic types    =            1
     number of electrons       =       512.00
     number of Kohn-Sham states=          307
     kinetic-energy cutoff     =      71.0000  Ry
     charge density cutoff     =     430.0000  Ry
     scf convergence threshold =      1.0E-10
     mixing beta               =       0.3000
     number of iterations used =           10  plain     mixing
     press convergence thresh. =      5.0E-01
     Exchange-correlation= SLA  PW   PBX  PBC
                           (   1   4   3   4   0   0   0)

     celldm(1)=  14.400000  celldm(2)=   0.000000  celldm(3)=   0.000000
     celldm(4)=   0.000000  celldm(5)=   0.000000  celldm(6)=   0.000000

     crystal axes: (cart. coord. in units of alat)
               a(1) = (   0.999585   0.000000   0.000000 )
               a(2) = (   0.000000   0.999585   0.000000 )
               a(3) = (   0.000000   0.000000   0.999585 )

     reciprocal axes: (cart. coord. in units 2 pi/alat)
               b(1) = (  1.000415  0.000000  0.000000 )
               b(2) = (  0.000000  1.000415  0.000000 )
               b(3) = (  0.000000  0.000000  1.000415 )

     PseudoPot. # 1 for Ru read from file:
     /rds/homes/b/bxp912/pp/Ru.pbe-spn-kjpaw_psl.1.0.0.UPF
     MD5 check sum: 0ae1f594dea09af7be8575c3a481d1ae
     Pseudo is Projector augmented-wave + core cor, Zval = 16.0
     Generated using "atomic" code by A. Dal Corso  v.5.1
     Shape of augmentation charge: PSQ
     Using radial grid of 1233 points,  6 beta functions with:
                l(1) =   0
                l(2) =   0
                l(3) =   1
                l(4) =   1
                l(5) =   2
                l(6) =   2
     Q(r) pseudized with 0 coefficients

     atomic species   valence    mass     pseudopotential
        Ru            16.00   101.07000     Ru( 1.00)

     48 Sym. Ops., with inversion, found

   Cartesian axes

     site n.     atom                  positions (alat units)
         1           Ru  tau(   1) = (   0.0000000   0.0000000   0.0000000  )
         2           Ru  tau(   2) = (   0.2498962   0.2498962  -0.0000000  )
         3           Ru  tau(   3) = (   0.2498962  -0.0000000   0.2498962  )
         4           Ru  tau(   4) = (  -0.0000000   0.2498962   0.2498962  )
         5           Ru  tau(   5) = (   0.0000000   0.0000000   0.4997927  )
         6           Ru  tau(   6) = (   0.2498962   0.2498962   0.4997927  )
         7           Ru  tau(   7) = (   0.2498962   0.0000000   0.7496893  )
         8           Ru  tau(   8) = (   0.0000000   0.2498962   0.7496893  )
         9           Ru  tau(   9) = (   0.0000000   0.4997927   0.0000000  )
        10           Ru  tau(  10) = (   0.2498962   0.7496893   0.0000000  )
        11           Ru  tau(  11) = (   0.2498962   0.4997927   0.2498962  )
        12           Ru  tau(  12) = (  -0.0000000   0.7496893   0.2498962  )
        13           Ru  tau(  13) = (   0.0000000   0.4997927   0.4997927  )
        14           Ru  tau(  14) = (   0.2498962   0.7496892   0.4997927  )
        15           Ru  tau(  15) = (   0.2498962   0.4997927   0.7496892  )
        16           Ru  tau(  16) = (   0.0000000   0.7496893   0.7496893  )
        17           Ru  tau(  17) = (   0.4997927   0.0000000   0.0000000  )
        18           Ru  tau(  18) = (   0.7496893   0.2498962  -0.0000000  )
        19           Ru  tau(  19) = (   0.7496893   0.0000000   0.2498962  )
        20           Ru  tau(  20) = (   0.4997927   0.2498962   0.2498962  )
        21           Ru  tau(  21) = (   0.4997927   0.0000000   0.4997927  )
        22           Ru  tau(  22) = (   0.7496892   0.2498962   0.4997927  )
        23           Ru  tau(  23) = (   0.7496893   0.0000000   0.7496893  )
        24           Ru  tau(  24) = (   0.4997927   0.2498962   0.7496892  )
        25           Ru  tau(  25) = (   0.4997927   0.4997927   0.0000000  )
        26           Ru  tau(  26) = (   0.7496893   0.7496893   0.0000000  )
        27           Ru  tau(  27) = (   0.7496892   0.4997927   0.2498962  )
        28           Ru  tau(  28) = (   0.4997927   0.7496892   0.2498962  )
        29           Ru  tau(  29) = (   0.4997927   0.4997927   0.4997927  )
        30           Ru  tau(  30) = (   0.7496892   0.7496892   0.4997927  )
        31           Ru  tau(  31) = (   0.7496892   0.4997927   0.7496892  )
        32           Ru  tau(  32) = (   0.4997927   0.7496892   0.7496892  )

     number of k points=    35  Marzari-Vanderbilt smearing, width (Ry)=  0.0400
                       cart. coord. in units 2pi/alat
        k(    1) = (   0.0555786   0.0555786   0.0555786), wk =   0.0219479
        k(    2) = (   0.0555786   0.0555786   0.1667358), wk =   0.0658436
        k(    3) = (   0.0555786   0.0555786   0.2778930), wk =   0.0658436
        k(    4) = (   0.0555786   0.0555786   0.3890502), wk =   0.0658436
        k(    5) = (   0.0555786   0.0555786  -0.5002074), wk =   0.0329218
        k(    6) = (   0.0555786   0.1667358   0.1667358), wk =   0.0658436
        k(    7) = (   0.0555786   0.1667358   0.2778930), wk =   0.1316872
        k(    8) = (   0.0555786   0.1667358   0.3890502), wk =   0.1316872
        k(    9) = (   0.0555786   0.1667358  -0.5002074), wk =   0.0658436
        k(   10) = (   0.0555786   0.2778930   0.2778930), wk =   0.0658436
        k(   11) = (   0.0555786   0.2778930   0.3890502), wk =   0.1316872
        k(   12) = (   0.0555786   0.2778930  -0.5002074), wk =   0.0658436
        k(   13) = (   0.0555786   0.3890502   0.3890502), wk =   0.0658436
        k(   14) = (   0.0555786   0.3890502  -0.5002074), wk =   0.0658436
        k(   15) = (   0.0555786  -0.5002074  -0.5002074), wk =   0.0164609
        k(   16) = (   0.1667358   0.1667358   0.1667358), wk =   0.0219479
        k(   17) = (   0.1667358   0.1667358   0.2778930), wk =   0.0658436
        k(   18) = (   0.1667358   0.1667358   0.3890502), wk =   0.0658436
        k(   19) = (   0.1667358   0.1667358  -0.5002074), wk =   0.0329218
        k(   20) = (   0.1667358   0.2778930   0.2778930), wk =   0.0658436
        k(   21) = (   0.1667358   0.2778930   0.3890502), wk =   0.1316872
        k(   22) = (   0.1667358   0.2778930  -0.5002074), wk =   0.0658436
        k(   23) = (   0.1667358   0.3890502   0.3890502), wk =   0.0658436
        k(   24) = (   0.1667358   0.3890502  -0.5002074), wk =   0.0658436
        k(   25) = (   0.1667358  -0.5002074  -0.5002074), wk =   0.0164609
        k(   26) = (   0.2778930   0.2778930   0.2778930), wk =   0.0219479
        k(   27) = (   0.2778930   0.2778930   0.3890502), wk =   0.0658436
        k(   28) = (   0.2778930   0.2778930  -0.5002074), wk =   0.0329218
        k(   29) = (   0.2778930   0.3890502   0.3890502), wk =   0.0658436
        k(   30) = (   0.2778930   0.3890502  -0.5002074), wk =   0.0658436
        k(   31) = (   0.2778930  -0.5002074  -0.5002074), wk =   0.0164609
        k(   32) = (   0.3890502   0.3890502   0.3890502), wk =   0.0219479
        k(   33) = (   0.3890502   0.3890502  -0.5002074), wk =   0.0329218
        k(   34) = (   0.3890502  -0.5002074  -0.5002074), wk =   0.0164609
        k(   35) = (  -0.5002074  -0.5002074  -0.5002074), wk =   0.0027435

     Check: negative core charge=   -0.000002

     Initial potential from superposition of free atoms

     starting charge  511.97959, renormalised to  512.00000
     Starting wfcs are  320 randomized atomic wfcs
     Checking if some PAW data can be deallocated...

     Self-consistent Calculation

[...]

     total energy              =  -13813.30074255 Ry
     estimated scf accuracy    <          3.8E-10 Ry

     iteration # 17     ecut=    71.00 Ry     beta= 0.30
     Davidson diagonalization with overlap
     ethr =  1.00E-13,  avg # of iterations =  1.0

     End of self-consistent calculation

[...]

          k = 0.3891-0.5002-0.5002 ( 30116 PWs)   bands (ev):

[...]

          k =-0.5002-0.5002-0.5002 ( 29992 PWs)   bands (ev):

   -49.7882 -49.7882 -49.7882 -49.7882 -49.7882 -49.7882 -49.7882 -49.7882
   -49.6762 -49.6762 -49.6762 -49.6762 -49.6762 -49.6762 -49.6762 -49.6762
   -49.6762 -49.6762 -49.6762 -49.6762 -49.6762 -49.6762 -49.6762 -49.6762
   -49.6762 -49.6762 -49.6762 -49.6762 -49.6762 -49.6762 -49.6762 -49.6762
   -20.1079 -20.1079 -20.1079 -20.1079 -20.1079 -20.1079 -20.1079 -20.1079
   -20.1079 -20.1079 -20.1079 -20.1079 -20.1079 -20.1079 -20.1079 -20.1079
   -20.1079 -20.1079 -20.1079 -20.1079 -20.1079 -20.1079 -20.1079 -20.1079
   -19.7864 -19.7864 -19.7864 -19.7864 -19.7864 -19.7864 -19.7864 -19.7864
   -19.6736 -19.6736 -19.6736 -19.6736 -19.6736 -19.6736 -19.6736 -19.6736
   -19.6736 -19.6736 -19.6736 -19.6736 -19.6736 -19.6736 -19.6736 -19.6736
   -19.6736 -19.6736 -19.6736 -19.6736 -19.6736 -19.6736 -19.6736 -19.6736
   -19.5227 -19.5227 -19.5227 -19.5227 -19.5227 -19.5227 -19.5227 -19.5227
   -19.5227 -19.5227 -19.5227 -19.5227 -19.5227 -19.5227 -19.5227 -19.5227
   -19.5227 -19.5227 -19.5227 -19.5227 -19.5227 -19.5227 -19.5227 -19.5227
   -19.3391 -19.3391 -19.3391 -19.3391 -19.3391 -19.3391 -19.3391 -19.3391
   -19.3391 -19.3391 -19.3391 -19.3391 -19.3391 -19.3391 -19.3391 -19.3391
    17.1758  17.1758  17.1758  17.1758  17.1758  17.1758  17.1758  17.1758
    18.0278  18.0278  18.0278  18.0278  18.0278  18.0278  18.0278  18.0278
    18.0278  18.0278  18.0278  18.0278  18.0278  18.0278  18.0278  18.0278
    18.0278  18.0278  18.0278  18.0278  18.0278  18.0278  18.0278  18.0278
    19.0591  19.0591  19.0591  19.0591  19.0591  19.0591  19.0591  19.0591
    19.0591  19.0591  19.0591  19.0591  19.0592  19.0592  19.0592  19.0592
    19.0592  19.0592  19.0592  19.0592  19.0592  19.0592  19.0592  19.0592
    20.3856  20.3856  20.3856  20.3856  20.3856  20.3856  20.3856  20.3856
    21.0259  21.0259  21.0259  21.0259  21.0259  21.0259  21.0259  21.0259
    21.0259  21.0259  21.0259  21.0259  21.0259  21.0259  21.0259  21.0259
    21.1367  21.1367  21.1367  21.1367  21.1367  21.1367  21.1367  21.1367
    21.1367  21.1367  21.1367  21.1367  21.1367  21.1367  21.1367  21.1367
    21.1367  21.1367  21.1367  21.1367  21.1367  21.1367  21.1367  21.1367
    22.3531  22.3531  22.3531  22.3531  22.3531  22.3531  22.3531  22.3531
    22.3531  22.3531  22.3531  22.3531  22.3531  22.3531  22.3531  22.3531
    22.3531  22.3531  22.3531  22.3531  22.3531  22.3531  22.3531  22.3531
    23.1869  23.1869  23.1869  23.1869  23.1869  23.1869  23.1869  23.1869
    23.1869  23.1869  23.1869  23.1869  23.1869  23.1869  23.1869  23.1869
    24.9888  24.9888  24.9888  24.9888  24.9888  24.9888  24.9888  24.9888
    24.9888  24.9888  24.9888  24.9888  24.9888  24.9888  24.9888  24.9888
    24.9888  24.9888  24.9888  24.9888  24.9888  24.9888  24.9888  24.9888
    28.3736  28.3736  28.3737  28.3737  28.3737  28.3737  28.3737  28.3737
    28.3737  28.3737  28.3737

     the Fermi energy is    23.1541 ev

!    total energy              =  -13813.30074255 Ry

     total all-electron energy =   -289989.691082 Ry
     estimated scf accuracy    <          7.7E-11 Ry
     smearing contrib. (-TS)   =       0.02054521 Ry
     internal energy E=F+TS    =  -13813.32128775 Ry

     The total energy is F=E-TS. E is the sum of the following terms:
     one-electron contribution =    -991.99383814 Ry
     hartree contribution      =     914.95467705 Ry
     xc contribution           =    -928.12015482 Ry
     ewald contribution        =   -5218.71772682 Ry
     one-center paw contrib.   =   -7589.44424503 Ry

     convergence has been achieved in  17 iterations

     Forces acting on atoms (cartesian axes, Ry/au):

     atom    1 type  1   force =     0.00000000    0.00000000    0.00000000
     atom    2 type  1   force =     0.00000103    0.00000103    0.00000000
     atom    3 type  1   force =     0.00000103    0.00000000    0.00000103
     atom    4 type  1   force =    -0.00000000    0.00000103    0.00000103
     atom    5 type  1   force =     0.00000000    0.00000000    0.00000000
     atom    6 type  1   force =     0.00000062    0.00000062    0.00000000
     atom    7 type  1   force =     0.00000103    0.00000000   -0.00000103
     atom    8 type  1   force =    -0.00000000    0.00000103   -0.00000103
     atom    9 type  1   force =     0.00000000    0.00000000    0.00000000
     atom   10 type  1   force =     0.00000103   -0.00000103    0.00000000
     atom   11 type  1   force =     0.00000062   -0.00000000    0.00000062
     atom   12 type  1   force =     0.00000000   -0.00000103    0.00000103
     atom   13 type  1   force =     0.00000000    0.00000000    0.00000000
     atom   14 type  1   force =     0.00000062   -0.00000062    0.00000000
     atom   15 type  1   force =     0.00000062    0.00000000   -0.00000062
     atom   16 type  1   force =     0.00000000   -0.00000103   -0.00000103
     atom   17 type  1   force =     0.00000000    0.00000000    0.00000000
     atom   18 type  1   force =    -0.00000103    0.00000103    0.00000000
     atom   19 type  1   force =    -0.00000103   -0.00000000    0.00000103
     atom   20 type  1   force =     0.00000000    0.00000062    0.00000062
     atom   21 type  1   force =     0.00000000    0.00000000    0.00000000
     atom   22 type  1   force =    -0.00000062    0.00000062    0.00000000
     atom   23 type  1   force =    -0.00000103    0.00000000   -0.00000103
     atom   24 type  1   force =     0.00000000    0.00000062   -0.00000062
     atom   25 type  1   force =     0.00000000    0.00000000    0.00000000
     atom   26 type  1   force =    -0.00000103   -0.00000103    0.00000000
     atom   27 type  1   force =    -0.00000062    0.00000000    0.00000062
     atom   28 type  1   force =    -0.00000000   -0.00000062    0.00000062
     atom   29 type  1   force =     0.00000000    0.00000000    0.00000000
     atom   30 type  1   force =    -0.00000062   -0.00000062    0.00000000
     atom   31 type  1   force =    -0.00000062   -0.00000000   -0.00000062
     atom   32 type  1   force =    -0.00000000   -0.00000062   -0.00000062

     Total force =     0.000006     Total SCF correction =     0.000050
     SCF correction compared to forces is large: reduce conv_thr to get better values

     Computing stress (Cartesian axis) and pressure

          total   stress  (Ry/bohr**3)                   (kbar)     P=       -0.04
  -0.00000030   0.00000000   0.00000000           -0.04        0.00        0.00
   0.00000000  -0.00000030   0.00000000            0.00       -0.04        0.00
   0.00000000   0.00000000  -0.00000030            0.00        0.00       -0.04

     Writing output data file /scratch/rurelax.save/

     General routines

     Parallel routines

   This run was terminated on:   8:57:35   7Mar2022

   JOB DONE.