     Program PWSCF v.6.3 starts on 11Nov2020 at  6:21: 1

     R & G space division:  proc/nbgrp/npool/nimage =      20
     Reading input from wd/relax/relax.in

     Current dimensions of program PWSCF are:
     Max number of different atomic species (ntypx) = 10
     Max number of k-points (npk) =  40000
     Max angular momentum in pseudopotentials (lmaxx) =  3
               file Pd.pbe-spn-kjpaw_psl.1.0.0.UPF: wavefunction(s)  4S 5S 4D renormalized

     Subspace diagonalization in iterative solution of the eigenvalue problem:
     a serial algorithm will be used

     Found symmetry operation: I + (  0.2500  0.2500  0.0000)
     This is a supercell, fractional translations are disabled

     bravais-lattice index     =            0
     lattice parameter (alat)  =      14.7042  a.u.
     unit-cell volume          =    3179.2465 (a.u.)^3
     number of atoms/cell      =           32
     number of atomic types    =            1
     number of electrons       =       576.00
     number of Kohn-Sham states=          346
     kinetic-energy cutoff     =      71.0000  Ry
     charge density cutoff     =     430.0000  Ry
     convergence threshold     =      1.0E-06
     mixing beta               =       0.1000
     number of iterations used =           10  plain     mixing
     Exchange-correlation      = SLA PW PBX PBC ( 1  4  3  4 0 0)
     nstep                     =           40

     celldm(1)=  14.704200  celldm(2)=   0.000000  celldm(3)=   0.000000
     celldm(4)=   0.000000  celldm(5)=   0.000000  celldm(6)=   0.000000

     crystal axes: (cart. coord. in units of alat)
               a(1) = (   1.000000   0.000000   0.000000 )
               a(2) = (   0.000000   1.000000   0.000000 )
               a(3) = (   0.000000   0.000000   1.000000 )

     reciprocal axes: (cart. coord. in units 2 pi/alat)
               b(1) = (  1.000000  0.000000  0.000000 )
               b(2) = (  0.000000  1.000000  0.000000 )
               b(3) = (  0.000000  0.000000  1.000000 )

     PseudoPot. # 1 for Pd read from file:
     /rds/homes/b/bxp912/pp/Pd.pbe-spn-kjpaw_psl.1.0.0.UPF
     MD5 check sum: 790f2ebce206edfd9790dcb9844eca51
     Pseudo is Projector augmented-wave + core cor, Zval = 18.0
     Generated using "atomic" code by A. Dal Corso v.6.3
     Shape of augmentation charge: PSQ
     Using radial grid of 1235 points,  6 beta functions with:
                l(1) =   0
                l(2) =   0
                l(3) =   1
                l(4) =   1
                l(5) =   2
                l(6) =   2
     Q(r) pseudized with 0 coefficients

     atomic species   valence    mass     pseudopotential
        Pd            18.00   106.42000     Pd( 1.00)

     48 Sym. Ops., with inversion, found

   Cartesian axes

     site n.     atom                  positions (alat units)
         1           Pd  tau(   1) = (   0.0000000   0.0000000   0.0000000  )
         2           Pd  tau(   2) = (   0.2500000   0.2500000   0.0000000  )
         3           Pd  tau(   3) = (   0.2500000   0.0000000   0.2500000  )
         4           Pd  tau(   4) = (   0.0000000   0.2500000   0.2500000  )
         5           Pd  tau(   5) = (   0.0000000   0.0000000   0.5000000  )
         6           Pd  tau(   6) = (   0.2500000   0.2500000   0.5000000  )
         7           Pd  tau(   7) = (   0.2500000   0.0000000   0.7500000  )
         8           Pd  tau(   8) = (   0.0000000   0.2500000   0.7500000  )
         9           Pd  tau(   9) = (   0.0000000   0.5000000   0.0000000  )
        10           Pd  tau(  10) = (   0.2500000   0.7500000   0.0000000  )
        11           Pd  tau(  11) = (   0.2500000   0.5000000   0.2500000  )
        12           Pd  tau(  12) = (   0.0000000   0.7500000   0.2500000  )
        13           Pd  tau(  13) = (   0.0000000   0.5000000   0.5000000  )
        14           Pd  tau(  14) = (   0.2500000   0.7500000   0.5000000  )
        15           Pd  tau(  15) = (   0.2500000   0.5000000   0.7500000  )
        16           Pd  tau(  16) = (   0.0000000   0.7500000   0.7500000  )
        17           Pd  tau(  17) = (   0.5000000   0.0000000   0.0000000  )
        18           Pd  tau(  18) = (   0.7500000   0.2500000   0.0000000  )
        19           Pd  tau(  19) = (   0.7500000   0.0000000   0.2500000  )
        20           Pd  tau(  20) = (   0.5000000   0.2500000   0.2500000  )
        21           Pd  tau(  21) = (   0.5000000   0.0000000   0.5000000  )
        22           Pd  tau(  22) = (   0.7500000   0.2500000   0.5000000  )
        23           Pd  tau(  23) = (   0.7500000   0.0000000   0.7500000  )
        24           Pd  tau(  24) = (   0.5000000   0.2500000   0.7500000  )
        25           Pd  tau(  25) = (   0.5000000   0.5000000   0.0000000  )
        26           Pd  tau(  26) = (   0.7500000   0.7500000   0.0000000  )
        27           Pd  tau(  27) = (   0.7500000   0.5000000   0.2500000  )
        28           Pd  tau(  28) = (   0.5000000   0.7500000   0.2500000  )
        29           Pd  tau(  29) = (   0.5000000   0.5000000   0.5000000  )
        30           Pd  tau(  30) = (   0.7500000   0.7500000   0.5000000  )
        31           Pd  tau(  31) = (   0.7500000   0.5000000   0.7500000  )
        32           Pd  tau(  32) = (   0.5000000   0.7500000   0.7500000  )

     number of k points=    35  Marzari-Vanderbilt smearing, width (Ry)=  0.0400
                       cart. coord. in units 2pi/alat
        k(    1) = (   0.0555556   0.0555556   0.0555556), wk =   0.0219479
        k(    2) = (   0.0555556   0.0555556   0.1666667), wk =   0.0658436
        k(    3) = (   0.0555556   0.0555556   0.2777778), wk =   0.0658436
        k(    4) = (   0.0555556   0.0555556   0.3888889), wk =   0.0658436
        k(    5) = (   0.0555556   0.0555556  -0.5000000), wk =   0.0329218
        k(    6) = (   0.0555556   0.1666667   0.1666667), wk =   0.0658436
        k(    7) = (   0.0555556   0.1666667   0.2777778), wk =   0.1316872
        k(    8) = (   0.0555556   0.1666667   0.3888889), wk =   0.1316872
        k(    9) = (   0.0555556   0.1666667  -0.5000000), wk =   0.0658436
        k(   10) = (   0.0555556   0.2777778   0.2777778), wk =   0.0658436
        k(   11) = (   0.0555556   0.2777778   0.3888889), wk =   0.1316872
        k(   12) = (   0.0555556   0.2777778  -0.5000000), wk =   0.0658436
        k(   13) = (   0.0555556   0.3888889   0.3888889), wk =   0.0658436
        k(   14) = (   0.0555556   0.3888889  -0.5000000), wk =   0.0658436
        k(   15) = (   0.0555556  -0.5000000  -0.5000000), wk =   0.0164609
        k(   16) = (   0.1666667   0.1666667   0.1666667), wk =   0.0219479
        k(   17) = (   0.1666667   0.1666667   0.2777778), wk =   0.0658436
        k(   18) = (   0.1666667   0.1666667   0.3888889), wk =   0.0658436
        k(   19) = (   0.1666667   0.1666667  -0.5000000), wk =   0.0329218
        k(   20) = (   0.1666667   0.2777778   0.2777778), wk =   0.0658436
        k(   21) = (   0.1666667   0.2777778   0.3888889), wk =   0.1316872
        k(   22) = (   0.1666667   0.2777778  -0.5000000), wk =   0.0658436
        k(   23) = (   0.1666667   0.3888889   0.3888889), wk =   0.0658436
        k(   24) = (   0.1666667   0.3888889  -0.5000000), wk =   0.0658436
        k(   25) = (   0.1666667  -0.5000000  -0.5000000), wk =   0.0164609
        k(   26) = (   0.2777778   0.2777778   0.2777778), wk =   0.0219479
        k(   27) = (   0.2777778   0.2777778   0.3888889), wk =   0.0658436
        k(   28) = (   0.2777778   0.2777778  -0.5000000), wk =   0.0329218
        k(   29) = (   0.2777778   0.3888889   0.3888889), wk =   0.0658436
        k(   30) = (   0.2777778   0.3888889  -0.5000000), wk =   0.0658436
        k(   31) = (   0.2777778  -0.5000000  -0.5000000), wk =   0.0164609
        k(   32) = (   0.3888889   0.3888889   0.3888889), wk =   0.0219479
        k(   33) = (   0.3888889   0.3888889  -0.5000000), wk =   0.0329218
        k(   34) = (   0.3888889  -0.5000000  -0.5000000), wk =   0.0164609
        k(   35) = (  -0.5000000  -0.5000000  -0.5000000), wk =   0.0027435

     Check: negative/imaginary core charge=   -0.000002    0.000000

     Initial potential from superposition of free atoms

     starting charge  575.98776, renormalised to  576.00000
     Starting wfcs are  320 randomized atomic wfcs +   26 random wfcs
     Checking if some PAW data can be deallocated...

     Self-consistent Calculation

     iteration #  1     ecut=    71.00 Ry     beta= 0.10
     Davidson diagonalization with overlap
     ethr =  1.00E-02,  avg # of iterations =  3.1

     Threshold (ethr) on eigenvalues was too large:
     Diagonalizing with lowered threshold

     Davidson diagonalization with overlap
     ethr =  6.88E-05,  avg # of iterations =  3.0

     total energy              =  -16384.98565357 Ry
     Harris-Foulkes estimate   =  -16385.04051729 Ry
     estimated scf accuracy    <       0.39247737 Ry

[...]

     End of self-consistent calculation

          k = 0.0556 0.0556 0.0556 ( 32090 PWs)   bands (ev):

   -64.2277 -64.1947 -64.1946 -64.1946 -64.1883 -64.1883 -64.1883 -64.1766
   -64.1765 -64.1765 -64.1735 -64.1732 -64.1731 -64.1731 -64.1731 -64.1731
   -64.1731 -64.1730 -64.1730 -64.1730 -64.1702 -64.1702 -64.1702 -64.1553
   -64.1552 -64.1552 -64.1551 -64.1551 -64.1551 -64.1551 -64.1551 -64.1551
   -30.1314 -30.1314 -30.1314 -30.1297 -30.1086 -30.1086 -30.1086 -30.0232
   -30.0232 -30.0232 -30.0184 -30.0184 -30.0184 -30.0184 -30.0184 -30.0183
   -30.0096 -30.0096 -30.0096 -30.0035 -30.0035 -30.0035 -30.0035 -30.0035
   -30.0035 -29.9828 -29.9828 -29.9828 -29.9828 -29.9828 -29.9828 -29.9376
   -29.9376 -29.9376 -29.9106 -29.9106 -29.9105 -29.9040 -29.9040 -29.9040
   -29.8934 -29.8934 -29.8934 -29.8934 -29.8933 -29.8933 -29.8766 -29.8766
   -29.8766 -29.8755 -29.8755 -29.8755 -29.8755 -29.8755 -29.8755 -29.8748
   -29.8747 -29.8747 -29.8729 -29.8729 -29.8729 -29.8033 -29.8033 -29.8033
   -29.8031 -29.8031 -29.8031 -29.7897 -29.7897 -29.7896 -29.7896 -29.7895
   -29.7895 -29.7852 -29.7852 -29.7852 -29.7802 -29.7802 -29.7802 -29.7796
   -29.7796 -29.7796 -29.7796 -29.7796 -29.7796 -29.7791 -29.7791 -29.7791
   -29.7780 -29.7780 -29.7718 -29.7718 -29.7718 -29.7216 -29.7188 -29.7188
    12.8125  14.5488  14.5488  14.5488  14.6365  14.6506  14.6506  14.6506
    14.8361  14.8361  14.8361  14.8753  14.8753  14.8753  15.0657  15.0658
    15.0658  15.6002  15.6002  15.6002  15.6002  15.6002  15.6002  15.7640
    15.7640  15.7640  15.9381  15.9381  15.9381  15.9585  15.9585  15.9585
    16.0189  16.0189  16.0189  16.0202  16.0202  16.0202  16.0202  16.0202
    16.0203  16.3683  16.3683  16.3683  16.3683  16.3683  16.3683  16.4802
    16.4802  16.4802  16.5026  16.5026  16.5026  16.5026  16.5026  16.5026
    16.5610  16.5610  16.5610  16.7390  16.7390  16.7390  16.7391  16.7391
    16.7391  16.8453  16.8453  16.8453  16.8487  16.8488  16.8488  16.8488
    16.8488  16.8488  16.9608  16.9608  16.9608  17.0327  17.0328  17.0328
    17.0547  17.0547  17.0658  17.0658  17.0658  17.0867  17.1072  17.1072
    17.9368  17.9368  17.9368  17.9995  17.9995  17.9995  18.0753  18.0753
[...]
Pd       0.000000000   0.500000000   0.500000000
Pd       0.250011664   0.749988336   0.500000000
Pd       0.250011664   0.500000000   0.749988336
Pd       0.000000000   0.749995463   0.749995463
Pd       0.500000000  -0.000000000   0.000000000
Pd       0.749995463   0.250004537   0.000000000
Pd       0.749995463  -0.000000000   0.250004537
Pd       0.500000000   0.250011664   0.250011664
Pd       0.500000000   0.000000000   0.500000000
Pd       0.749988336   0.250011664   0.500000000
Pd       0.749995463   0.000000000   0.749995463
Pd       0.500000000   0.250011664   0.749988336
Pd       0.500000000   0.500000000  -0.000000000
Pd       0.749995463   0.749995463  -0.000000000
Pd       0.749988336   0.500000000   0.250011664
Pd       0.500000000   0.749988336   0.250011664
Pd       0.500000000   0.500000000   0.500000000
Pd       0.749988336   0.749988336   0.500000000
Pd       0.749988336   0.500000000   0.749988336
Pd       0.500000000   0.749988336   0.749988336
End final coordinates

     Writing output data file jhhxrirnQFyVvDce.save/

     A final scf calculation at the relaxed structure.
     The G-vectors are recalculated for the final unit cell
     Results may differ from those at the preceding step.

     bravais-lattice index     =            0
     lattice parameter (alat)  =      14.7042  a.u.
     unit-cell volume          =    3267.7613 (a.u.)^3
     number of atoms/cell      =           32
     number of atomic types    =            1
     number of electrons       =       576.00
     number of Kohn-Sham states=          346
     kinetic-energy cutoff     =      71.0000  Ry
     charge density cutoff     =     430.0000  Ry
     convergence threshold     =      1.0E-08
     mixing beta               =       0.1000
     number of iterations used =           10  plain     mixing
     Exchange-correlation      = SLA PW PBX PBC ( 1  4  3  4 0 0)

     celldm(1)=  14.704200  celldm(2)=   0.000000  celldm(3)=   0.000000
     celldm(4)=   0.000000  celldm(5)=   0.000000  celldm(6)=   0.000000

     crystal axes: (cart. coord. in units of alat)
               a(1) = (   1.009196   0.000000   0.000000 )
               a(2) = (   0.000000   1.009196   0.000000 )
               a(3) = (   0.000000   0.000000   1.009196 )

     reciprocal axes: (cart. coord. in units 2 pi/alat)
               b(1) = (  0.990888  0.000000  0.000000 )
               b(2) = (  0.000000  0.990888  0.000000 )
               b(3) = (  0.000000  0.000000  0.990888 )

     PseudoPot. # 1 for Pd read from file:
     /rds/homes/b/bxp912/pp/Pd.pbe-spn-kjpaw_psl.1.0.0.UPF
     MD5 check sum: 790f2ebce206edfd9790dcb9844eca51
     Pseudo is Projector augmented-wave + core cor, Zval = 18.0
     Generated using "atomic" code by A. Dal Corso v.6.3
     Shape of augmentation charge: PSQ
     Using radial grid of 1235 points,  6 beta functions with:
                l(1) =   0
                l(2) =   0
                l(3) =   1
                l(4) =   1
                l(5) =   2
                l(6) =   2
     Q(r) pseudized with 0 coefficients

     atomic species   valence    mass     pseudopotential
        Pd            18.00   106.42000     Pd( 1.00)

     48 Sym. Ops., with inversion, found

   Cartesian axes

     site n.     atom                  positions (alat units)
         1           Pd  tau(   1) = (   0.0000000   0.0000000   0.0000000  )
         2           Pd  tau(   2) = (   0.2523035   0.2523035  -0.0000000  )
         3           Pd  tau(   3) = (   0.2523035  -0.0000000   0.2523035  )
         4           Pd  tau(   4) = (   0.0000000   0.2523035   0.2523035  )
         5           Pd  tau(   5) = (   0.0000000  -0.0000000   0.5045978  )
         6           Pd  tau(   6) = (   0.2523107   0.2523107   0.5045978  )
         7           Pd  tau(   7) = (   0.2523035  -0.0000000   0.7568922  )
         8           Pd  tau(   8) = (  -0.0000000   0.2523035   0.7568922  )
         9           Pd  tau(   9) = (   0.0000000   0.5045978   0.0000000  )
        10           Pd  tau(  10) = (   0.2523035   0.7568922  -0.0000000  )
        11           Pd  tau(  11) = (   0.2523107   0.5045978   0.2523107  )
        12           Pd  tau(  12) = (  -0.0000000   0.7568922   0.2523035  )
        13           Pd  tau(  13) = (   0.0000000   0.5045978   0.5045978  )
        14           Pd  tau(  14) = (   0.2523107   0.7568850   0.5045978  )
        15           Pd  tau(  15) = (   0.2523107   0.5045978   0.7568850  )
        16           Pd  tau(  16) = (   0.0000000   0.7568922   0.7568922  )
        17           Pd  tau(  17) = (   0.5045978  -0.0000000   0.0000000  )
        18           Pd  tau(  18) = (   0.7568922   0.2523035   0.0000000  )
        19           Pd  tau(  19) = (   0.7568922  -0.0000000   0.2523035  )
        20           Pd  tau(  20) = (   0.5045978   0.2523107   0.2523107  )
        21           Pd  tau(  21) = (   0.5045978   0.0000000   0.5045978  )
        22           Pd  tau(  22) = (   0.7568850   0.2523107   0.5045978  )
        23           Pd  tau(  23) = (   0.7568922   0.0000000   0.7568922  )
        24           Pd  tau(  24) = (   0.5045978   0.2523107   0.7568850  )
        25           Pd  tau(  25) = (   0.5045978   0.5045978  -0.0000000  )
        26           Pd  tau(  26) = (   0.7568922   0.7568922  -0.0000000  )
        27           Pd  tau(  27) = (   0.7568850   0.5045978   0.2523107  )
        28           Pd  tau(  28) = (   0.5045978   0.7568850   0.2523107  )
        29           Pd  tau(  29) = (   0.5045978   0.5045978   0.5045978  )
        30           Pd  tau(  30) = (   0.7568850   0.7568850   0.5045978  )
        31           Pd  tau(  31) = (   0.7568850   0.5045978   0.7568850  )
        32           Pd  tau(  32) = (   0.5045978   0.7568850   0.7568850  )

     number of k points=    35  Marzari-Vanderbilt smearing, width (Ry)=  0.0400
                       cart. coord. in units 2pi/alat
        k(    1) = (   0.0550493   0.0550493   0.0550493), wk =   0.0219479
        k(    2) = (   0.0550493   0.0550493   0.1651480), wk =   0.0658436
        k(    3) = (   0.0550493   0.0550493   0.2752467), wk =   0.0658436
        k(    4) = (   0.0550493   0.0550493   0.3853454), wk =   0.0658436
        k(    5) = (   0.0550493   0.0550493  -0.4954441), wk =   0.0329218
        k(    6) = (   0.0550493   0.1651480   0.1651480), wk =   0.0658436
        k(    7) = (   0.0550493   0.1651480   0.2752467), wk =   0.1316872
        k(    8) = (   0.0550493   0.1651480   0.3853454), wk =   0.1316872
        k(    9) = (   0.0550493   0.1651480  -0.4954441), wk =   0.0658436
        k(   10) = (   0.0550493   0.2752467   0.2752467), wk =   0.0658436
        k(   11) = (   0.0550493   0.2752467   0.3853454), wk =   0.1316872
        k(   12) = (   0.0550493   0.2752467  -0.4954441), wk =   0.0658436
        k(   13) = (   0.0550493   0.3853454   0.3853454), wk =   0.0658436
        k(   14) = (   0.0550493   0.3853454  -0.4954441), wk =   0.0658436
        k(   15) = (   0.0550493  -0.4954441  -0.4954441), wk =   0.0164609
        k(   16) = (   0.1651480   0.1651480   0.1651480), wk =   0.0219479
        k(   17) = (   0.1651480   0.1651480   0.2752467), wk =   0.0658436
        k(   18) = (   0.1651480   0.1651480   0.3853454), wk =   0.0658436
        k(   19) = (   0.1651480   0.1651480  -0.4954441), wk =   0.0329218
        k(   20) = (   0.1651480   0.2752467   0.2752467), wk =   0.0658436
        k(   21) = (   0.1651480   0.2752467   0.3853454), wk =   0.1316872
        k(   22) = (   0.1651480   0.2752467  -0.4954441), wk =   0.0658436
        k(   23) = (   0.1651480   0.3853454   0.3853454), wk =   0.0658436
        k(   24) = (   0.1651480   0.3853454  -0.4954441), wk =   0.0658436
        k(   25) = (   0.1651480  -0.4954441  -0.4954441), wk =   0.0164609
        k(   26) = (   0.2752467   0.2752467   0.2752467), wk =   0.0219479
        k(   27) = (   0.2752467   0.2752467   0.3853454), wk =   0.0658436
        k(   28) = (   0.2752467   0.2752467  -0.4954441), wk =   0.0329218
        k(   29) = (   0.2752467   0.3853454   0.3853454), wk =   0.0658436
        k(   30) = (   0.2752467   0.3853454  -0.4954441), wk =   0.0658436
        k(   31) = (   0.2752467  -0.4954441  -0.4954441), wk =   0.0164609
        k(   32) = (   0.3853454   0.3853454   0.3853454), wk =   0.0219479
        k(   33) = (   0.3853454   0.3853454  -0.4954441), wk =   0.0329218
        k(   34) = (   0.3853454  -0.4954441  -0.4954441), wk =   0.0164609
        k(   35) = (  -0.4954441  -0.4954441  -0.4954441), wk =   0.0027435

     Check: negative/imaginary core charge=   -0.000002    0.000000

     Initial potential from superposition of free atoms

     starting charge  575.98776, renormalised to  576.00000
     Starting wfcs are  320 randomized atomic wfcs +   26 random wfcs
     Checking if some PAW data can be deallocated...

     Self-consistent Calculation

     iteration #  1     ecut=    71.00 Ry     beta= 0.10
     Davidson diagonalization with overlap
     c_bands:  2 eigenvalues not converged
     ethr =  1.00E-06,  avg # of iterations =  8.1

[...]

     total energy              =  -16384.95810241 Ry
     Harris-Foulkes estimate   =  -16384.95810099 Ry
     estimated scf accuracy    <       0.00000001 Ry

     iteration # 14     ecut=    71.00 Ry     beta= 0.10
     Davidson diagonalization with overlap
     ethr =  2.06E-12,  avg # of iterations =  2.0

     End of self-consistent calculation

[...]

          k = 0.3853-0.4954-0.4954 ( 33008 PWs)   bands (ev):

[...]

          k =-0.4954-0.4954-0.4954 ( 32968 PWs)   bands (ev):

   -64.8465 -64.8464 -64.8464 -64.8464 -64.8463 -64.8463 -64.8463 -64.8462
   -64.8145 -64.8142 -64.8142 -64.8142 -64.8142 -64.8142 -64.8142 -64.8142
   -64.8142 -64.8142 -64.8142 -64.8142 -64.8141 -64.8141 -64.8141 -64.8140
   -64.8140 -64.8140 -64.8140 -64.8140 -64.8140 -64.8140 -64.8140 -64.8140
   -30.6929 -30.6929 -30.6929 -30.6928 -30.6928 -30.6928 -30.6927 -30.6927
   -30.6927 -30.6927 -30.6927 -30.6927 -30.6927 -30.6927 -30.6927 -30.6926
   -30.6926 -30.6926 -30.6926 -30.6926 -30.6926 -30.6926 -30.6926 -30.6926
   -30.5702 -30.5701 -30.5701 -30.5701 -30.5701 -30.5701 -30.5701 -30.5701
   -30.5329 -30.5329 -30.5329 -30.5329 -30.5329 -30.5329 -30.5329 -30.5329
   -30.5329 -30.5329 -30.5329 -30.5329 -30.5328 -30.5328 -30.5328 -30.5328
   -30.5328 -30.5328 -30.5328 -30.5328 -30.5328 -30.5328 -30.5328 -30.5327
   -30.4786 -30.4786 -30.4786 -30.4786 -30.4786 -30.4786 -30.4786 -30.4786
   -30.4786 -30.4786 -30.4785 -30.4785 -30.4785 -30.4785 -30.4785 -30.4785
   -30.4785 -30.4785 -30.4785 -30.4785 -30.4784 -30.4784 -30.4784 -30.4784
   -30.4082 -30.4082 -30.4082 -30.4081 -30.4081 -30.4081 -30.4081 -30.4081
   -30.4080 -30.4080 -30.4080 -30.4080 -30.4080 -30.4080 -30.4080 -30.4080
    13.9289  13.9292  13.9292  13.9292  13.9294  13.9294  13.9294  13.9294
    14.7771  14.7771  14.7771  14.7772  14.7772  14.7772  14.7772  14.7773
    14.7773  14.7773  14.7773  14.7773  14.7774  14.7774  14.7774  14.7774
    14.7774  14.7774  14.7774  14.7774  14.7774  14.7776  14.7776  14.7776
    15.5335  15.5335  15.5335  15.5337  15.5337  15.5337  15.5338  15.5338
    15.5338  15.5339  15.5339  15.5339  15.5340  15.5340  15.5340  15.5340
    15.5340  15.5340  15.5341  15.5341  15.5342  15.5342  15.5342  15.5342
    16.4654  16.4656  16.4656  16.4656  16.4657  16.4657  16.4657  16.4657
    16.7742  16.7742  16.7742  16.7742  16.7742  16.7743  16.7743  16.7743
    16.7743  16.7743  16.7743  16.7744  16.7744  16.7744  16.7745  16.7745
    16.9596  16.9596  16.9596  16.9597  16.9598  16.9598  16.9598  16.9598
    16.9598  16.9598  16.9598  16.9598  16.9599  16.9599  16.9599  16.9599
    16.9599  16.9599  16.9599  16.9599  16.9599  16.9599  16.9601  16.9601
    17.6787  17.6787  17.6787  17.6787  17.6787  17.6787  17.6788  17.6788
    17.6788  17.6788  17.6788  17.6788  17.6788  17.6788  17.6789  17.6789
    17.6789  17.6789  17.6789  17.6789  17.6790  17.6790  17.6790  17.6791
    18.1847  18.1847  18.1847  18.1848  18.1848  18.1848  18.1848  18.1848
    18.1849  18.1849  18.1849  18.1849  18.1849  18.1851  18.1851  18.1851
    19.2774  19.2774  19.2775  19.2775  19.2775  19.2775  19.2775  19.2775
    19.2776  19.2776  19.2776  19.2776  19.2776  19.2776  19.2776  19.2776
    19.2776  19.2776  19.2776  19.2777  19.2777  19.2777  19.2777  19.2777
    22.8536  22.8538  22.8538  22.8540  22.8540  22.8540  22.8540  22.8540
    22.8540  22.8540  22.8540  22.8540  22.8540  22.8540  22.8540  22.8541
    22.8541  22.8542  22.8542  22.8542  22.8542  22.8542  22.8542  22.8542
    28.2999  28.2999  28.2999  28.2999  28.2999  28.2999  28.2999  28.2999
    28.2999  28.3002  28.3002  28.3002  28.3002  28.3002  28.3003  28.3003
    28.3003  28.3004  28.3004  28.3004  28.3005  28.3006  28.3006  28.3006
    33.5309  33.5310

     the Fermi energy is    19.2985 ev

!    total energy              =  -16384.95810846 Ry
     Harris-Foulkes estimate   =  -16384.95810241 Ry
     estimated scf accuracy    <          1.2E-09 Ry

     total all-electron energy =   -322945.811816 Ry

     The total energy is the sum of the following terms:

     one-electron contribution =   -2484.49353304 Ry
     hartree contribution      =    1660.16025636 Ry
     xc contribution           =    -986.52919149 Ry
     ewald contribution        =   -6406.70136450 Ry
     one-center paw contrib.   =   -8167.42712637 Ry
     smearing contrib. (-TS)   =       0.03285058 Ry

     convergence has been achieved in  14 iterations

     Forces acting on atoms (cartesian axes, Ry/au):

     atom    1 type  1   force =     0.00000000    0.00000000    0.00000000
     atom    2 type  1   force =    -0.00000612   -0.00000612   -0.00000000
     atom    3 type  1   force =    -0.00000612    0.00000000   -0.00000612
     atom    4 type  1   force =     0.00000000   -0.00000612   -0.00000612
     atom    5 type  1   force =     0.00000000    0.00000000    0.00000000
     atom    6 type  1   force =    -0.00003796   -0.00003796    0.00000000
     atom    7 type  1   force =    -0.00000612    0.00000000    0.00000612
     atom    8 type  1   force =     0.00000000   -0.00000612    0.00000612
     atom    9 type  1   force =     0.00000000    0.00000000    0.00000000
     atom   10 type  1   force =    -0.00000612    0.00000612    0.00000000
     atom   11 type  1   force =    -0.00003796   -0.00000000   -0.00003796
     atom   12 type  1   force =     0.00000000    0.00000612   -0.00000612
     atom   13 type  1   force =     0.00000000    0.00000000    0.00000000
     atom   14 type  1   force =    -0.00003796    0.00003796   -0.00000000
     atom   15 type  1   force =    -0.00003796    0.00000000    0.00003796
     atom   16 type  1   force =    -0.00000000    0.00000612    0.00000612
     atom   17 type  1   force =     0.00000000    0.00000000    0.00000000
     atom   18 type  1   force =     0.00000612   -0.00000612    0.00000000
     atom   19 type  1   force =     0.00000612   -0.00000000   -0.00000612
     atom   20 type  1   force =    -0.00000000   -0.00003796   -0.00003796
     atom   21 type  1   force =     0.00000000    0.00000000    0.00000000
     atom   22 type  1   force =     0.00003796   -0.00003796    0.00000000
     atom   23 type  1   force =     0.00000612    0.00000000    0.00000612
     atom   24 type  1   force =     0.00000000   -0.00003796    0.00003796
     atom   25 type  1   force =     0.00000000    0.00000000    0.00000000
     atom   26 type  1   force =     0.00000612    0.00000612    0.00000000
     atom   27 type  1   force =     0.00003796    0.00000000   -0.00003796
     atom   28 type  1   force =    -0.00000000    0.00003796   -0.00003796
     atom   29 type  1   force =     0.00000000   -0.00000000    0.00000000
     atom   30 type  1   force =     0.00003796    0.00003796    0.00000000
     atom   31 type  1   force =     0.00003796    0.00000000    0.00003796
     atom   32 type  1   force =    -0.00000000    0.00003796    0.00003796

     Total force =     0.000188     Total SCF correction =     0.000183
     SCF correction compared to forces is large: reduce conv_thr to get better values

     Computing stress (Cartesian axis) and pressure

          total   stress  (Ry/bohr**3)                   (kbar)     P=    1.90
   0.00001293   0.00000000   0.00000000          1.90      0.00      0.00
   0.00000000   0.00001293   0.00000000          0.00      1.90      0.00
   0.00000000   0.00000000   0.00001293          0.00      0.00      1.90

     Writing output data file jhhxrirnQFyVvDce.save/

     General routines

     Parallel routines

      27h

   This run was terminated on:   7:48:16  11Nov2020

   JOB DONE.