     Program PWSCF v.6.7MaX starts on 23Nov2021 at 10:11:59

     R & G space division:  proc/nbgrp/npool/nimage =      72
     Reading input from /rds/homes/b/bxp912/jobs/20211014_ru_eos/wd/relax/relax.in

     Current dimensions of program PWSCF are:
     Max number of different atomic species (ntypx) = 10
     Max number of k-points (npk) =  40000
     Max angular momentum in pseudopotentials (lmaxx) =  3
     file Ru.pbe-spn-kjpaw_psl.1.0.0.UPF: wavefunction(s)  4D renormalized

     Subspace diagonalization in iterative solution of the eigenvalue problem:
     one sub-group per band group will be used

     Found symmetry operation: I + (  0.2500  0.2500  0.0000)
     This is a supercell, fractional translations are disabled
     Message from routine setup:
     using ibrav=0 with symmetry is DISCOURAGED, use correct ibrav instead

     bravais-lattice index     =            0
     lattice parameter (alat)  =      15.1200  a.u.
     unit-cell volume          =    3456.6497 (a.u.)^3
     number of atoms/cell      =           32
     number of atomic types    =            1
     number of electrons       =       512.00
     number of Kohn-Sham states=          307
     kinetic-energy cutoff     =      71.0000  Ry
     charge density cutoff     =     430.0000  Ry
     scf convergence threshold =      1.0E-06
     mixing beta               =       0.1000
     number of iterations used =           10  plain     mixing
     energy convergence thresh.=      1.0E-04
     force convergence thresh. =      1.0E-03
     press convergence thresh. =      5.0E-01
     Exchange-correlation= SLA  PW   PBX  PBC
                           (   1   4   3   4   0   0   0)
     nstep                     =           60

     celldm(1)=  15.120000  celldm(2)=   0.000000  celldm(3)=   0.000000
     celldm(4)=   0.000000  celldm(5)=   0.000000  celldm(6)=   0.000000

     crystal axes: (cart. coord. in units of alat)
               a(1) = (   1.000000   0.000000   0.000000 )
               a(2) = (   0.000000   1.000000   0.000000 )
               a(3) = (   0.000000   0.000000   1.000000 )

     reciprocal axes: (cart. coord. in units 2 pi/alat)
               b(1) = (  1.000000  0.000000  0.000000 )
               b(2) = (  0.000000  1.000000  0.000000 )
               b(3) = (  0.000000  0.000000  1.000000 )

     PseudoPot. # 1 for Ru read from file:
     /rds/homes/b/bxp912/pp/Ru.pbe-spn-kjpaw_psl.1.0.0.UPF
     MD5 check sum: 0ae1f594dea09af7be8575c3a481d1ae
     Pseudo is Projector augmented-wave + core cor, Zval = 16.0
     Generated using "atomic" code by A. Dal Corso  v.5.1
     Shape of augmentation charge: PSQ
     Using radial grid of 1233 points,  6 beta functions with:
                l(1) =   0
                l(2) =   0
                l(3) =   1
                l(4) =   1
                l(5) =   2
                l(6) =   2
     Q(r) pseudized with 0 coefficients

     atomic species   valence    mass     pseudopotential
        Ru            16.00   101.07000     Ru( 1.00)

     48 Sym. Ops., with inversion, found

   Cartesian axes

     site n.     atom                  positions (alat units)
         1           Ru  tau(   1) = (   0.0000000   0.0000000   0.0000000  )
         2           Ru  tau(   2) = (   0.2500000   0.2500000   0.0000000  )
         3           Ru  tau(   3) = (   0.2500000   0.0000000   0.2500000  )
         4           Ru  tau(   4) = (   0.0000000   0.2500000   0.2500000  )
         5           Ru  tau(   5) = (   0.0000000   0.0000000   0.5000000  )
         6           Ru  tau(   6) = (   0.2500000   0.2500000   0.5000000  )
         7           Ru  tau(   7) = (   0.2500000   0.0000000   0.7500000  )
         8           Ru  tau(   8) = (   0.0000000   0.2500000   0.7500000  )
         9           Ru  tau(   9) = (   0.0000000   0.5000000   0.0000000  )
        10           Ru  tau(  10) = (   0.2500000   0.7500000   0.0000000  )
        11           Ru  tau(  11) = (   0.2500000   0.5000000   0.2500000  )
        12           Ru  tau(  12) = (   0.0000000   0.7500000   0.2500000  )
        13           Ru  tau(  13) = (   0.0000000   0.5000000   0.5000000  )
        14           Ru  tau(  14) = (   0.2500000   0.7500000   0.5000000  )
        15           Ru  tau(  15) = (   0.2500000   0.5000000   0.7500000  )
        16           Ru  tau(  16) = (   0.0000000   0.7500000   0.7500000  )
        17           Ru  tau(  17) = (   0.5000000   0.0000000   0.0000000  )
        18           Ru  tau(  18) = (   0.7500000   0.2500000   0.0000000  )
        19           Ru  tau(  19) = (   0.7500000   0.0000000   0.2500000  )
        20           Ru  tau(  20) = (   0.5000000   0.2500000   0.2500000  )
        21           Ru  tau(  21) = (   0.5000000   0.0000000   0.5000000  )
        22           Ru  tau(  22) = (   0.7500000   0.2500000   0.5000000  )
        23           Ru  tau(  23) = (   0.7500000   0.0000000   0.7500000  )
        24           Ru  tau(  24) = (   0.5000000   0.2500000   0.7500000  )
        25           Ru  tau(  25) = (   0.5000000   0.5000000   0.0000000  )
        26           Ru  tau(  26) = (   0.7500000   0.7500000   0.0000000  )
        27           Ru  tau(  27) = (   0.7500000   0.5000000   0.2500000  )
        28           Ru  tau(  28) = (   0.5000000   0.7500000   0.2500000  )
        29           Ru  tau(  29) = (   0.5000000   0.5000000   0.5000000  )
        30           Ru  tau(  30) = (   0.7500000   0.7500000   0.5000000  )
        31           Ru  tau(  31) = (   0.7500000   0.5000000   0.7500000  )
        32           Ru  tau(  32) = (   0.5000000   0.7500000   0.7500000  )

     number of k points=    35  Marzari-Vanderbilt smearing, width (Ry)=  0.0400
                       cart. coord. in units 2pi/alat
        k(    1) = (   0.0555556   0.0555556   0.0555556), wk =   0.0219479
        k(    2) = (   0.0555556   0.0555556   0.1666667), wk =   0.0658436
        k(    3) = (   0.0555556   0.0555556   0.2777778), wk =   0.0658436
        k(    4) = (   0.0555556   0.0555556   0.3888889), wk =   0.0658436
        k(    5) = (   0.0555556   0.0555556  -0.5000000), wk =   0.0329218
        k(    6) = (   0.0555556   0.1666667   0.1666667), wk =   0.0658436
        k(    7) = (   0.0555556   0.1666667   0.2777778), wk =   0.1316872
        k(    8) = (   0.0555556   0.1666667   0.3888889), wk =   0.1316872
        k(    9) = (   0.0555556   0.1666667  -0.5000000), wk =   0.0658436
        k(   10) = (   0.0555556   0.2777778   0.2777778), wk =   0.0658436
        k(   11) = (   0.0555556   0.2777778   0.3888889), wk =   0.1316872
        k(   12) = (   0.0555556   0.2777778  -0.5000000), wk =   0.0658436
        k(   13) = (   0.0555556   0.3888889   0.3888889), wk =   0.0658436
        k(   14) = (   0.0555556   0.3888889  -0.5000000), wk =   0.0658436
        k(   15) = (   0.0555556  -0.5000000  -0.5000000), wk =   0.0164609
        k(   16) = (   0.1666667   0.1666667   0.1666667), wk =   0.0219479
        k(   17) = (   0.1666667   0.1666667   0.2777778), wk =   0.0658436
        k(   18) = (   0.1666667   0.1666667   0.3888889), wk =   0.0658436
        k(   19) = (   0.1666667   0.1666667  -0.5000000), wk =   0.0329218
        k(   20) = (   0.1666667   0.2777778   0.2777778), wk =   0.0658436
        k(   21) = (   0.1666667   0.2777778   0.3888889), wk =   0.1316872
        k(   22) = (   0.1666667   0.2777778  -0.5000000), wk =   0.0658436
        k(   23) = (   0.1666667   0.3888889   0.3888889), wk =   0.0658436
        k(   24) = (   0.1666667   0.3888889  -0.5000000), wk =   0.0658436
        k(   25) = (   0.1666667  -0.5000000  -0.5000000), wk =   0.0164609
        k(   26) = (   0.2777778   0.2777778   0.2777778), wk =   0.0219479
        k(   27) = (   0.2777778   0.2777778   0.3888889), wk =   0.0658436
        k(   28) = (   0.2777778   0.2777778  -0.5000000), wk =   0.0329218
        k(   29) = (   0.2777778   0.3888889   0.3888889), wk =   0.0658436
        k(   30) = (   0.2777778   0.3888889  -0.5000000), wk =   0.0658436
        k(   31) = (   0.2777778  -0.5000000  -0.5000000), wk =   0.0164609
        k(   32) = (   0.3888889   0.3888889   0.3888889), wk =   0.0219479
        k(   33) = (   0.3888889   0.3888889  -0.5000000), wk =   0.0329218
        k(   34) = (   0.3888889  -0.5000000  -0.5000000), wk =   0.0164609
        k(   35) = (  -0.5000000  -0.5000000  -0.5000000), wk =   0.0027435

     Check: negative core charge=   -0.000002

     Initial potential from superposition of free atoms

     starting charge  511.97959, renormalised to  512.00000
     Starting wfcs are  320 randomized atomic wfcs
     Checking if some PAW data can be deallocated...

     Self-consistent Calculation

     iteration #  1     ecut=    71.00 Ry     beta= 0.10
     Davidson diagonalization with overlap
     ethr =  1.00E-02,  avg # of iterations =  3.4

     Threshold (ethr) on eigenvalues was too large:
     Diagonalizing with lowered threshold

     Davidson diagonalization with overlap
     ethr =  5.53E-05,  avg # of iterations =  5.5

     total energy              =  -13812.80669344 Ry
     estimated scf accuracy    <       0.52066297 Ry

[...]

     End of self-consistent calculation

          k = 0.0556 0.0556 0.0556 ( 34949 PWs)   bands (ev):

   -53.5431 -53.4900 -53.4900 -53.4900 -53.4798 -53.4798 -53.4798 -53.4609
   -53.4609 -53.4609 -53.4560 -53.4553 -53.4553 -53.4553 -53.4553 -53.4553
   -53.4553 -53.4551 -53.4551 -53.4551 -53.4507 -53.4507 -53.4506 -53.4266
   -53.4266 -53.4266 -53.4264 -53.4264 -53.4264 -53.4264 -53.4264 -53.4264
   -23.7537 -23.7537 -23.7536 -23.7512 -23.7184 -23.7184 -23.7184 -23.5940
   -23.5940 -23.5940 -23.5869 -23.5869 -23.5869 -23.5869 -23.5869 -23.5869
   -23.5744 -23.5744 -23.5744 -23.5630 -23.5630 -23.5630 -23.5630 -23.5630
   -23.5630 -23.5324 -23.5324 -23.5324 -23.5324 -23.5324 -23.5324 -23.4693
   -23.4693 -23.4693 -23.4269 -23.4269 -23.4269 -23.4199 -23.4199 -23.4199
   -23.4017 -23.4017 -23.4017 -23.4017 -23.4017 -23.4017 -23.3772 -23.3772
   -23.3772 -23.3742 -23.3742 -23.3742 -23.3742 -23.3742 -23.3742 -23.3723
   -23.3723 -23.3723 -23.3696 -23.3696 -23.3696 -23.2689 -23.2689 -23.2689
   -23.2686 -23.2686 -23.2686 -23.2491 -23.2491 -23.2491 -23.2489 -23.2489
   -23.2489 -23.2416 -23.2416 -23.2416 -23.2339 -23.2339 -23.2339 -23.2334
   -23.2334 -23.2333 -23.2333 -23.2333 -23.2333 -23.2321 -23.2321 -23.2321
   -23.2304 -23.2304 -23.2220 -23.2220 -23.2220 -23.1508 -23.1467 -23.1467
    12.3154  14.2006  14.2006  14.2007  14.3073  14.3238  14.3238  14.3238
    14.3991  14.3991  14.3991  14.5996  14.5996  14.5996  14.6286  14.6286
    14.6286  15.3662  15.3662  15.3662  15.3662  15.3662  15.3662  15.6266
    15.6266  15.6266  15.6393  15.6393  15.6393  15.7596  15.7596  15.7596
    15.7596  15.7596  15.7596  15.8047  15.8047  15.8047  15.8623  15.8623
    15.8623  16.2825  16.2825  16.2825  16.2825  16.2825  16.2825  16.4058
    16.4058  16.4058  16.4365  16.4365  16.4365  16.4365  16.4365  16.4365
    16.5003  16.5003  16.5003  16.6777  16.6777  16.6777  16.6887  16.6887
    16.6887  16.6887  16.6887  16.6887  16.7167  16.7167  16.7167  16.7167
[...]
Ru            0.2499998506        0.7500001494        0.0000000000
Ru            0.2499988790        0.5000000000        0.2499988790
Ru           -0.0000000000        0.7500001494        0.2499998506
Ru            0.0000000000        0.5000000000        0.5000000000
Ru            0.2499988790        0.7500011210        0.5000000000
Ru            0.2499988790        0.5000000000        0.7500011210
Ru            0.0000000000        0.7500001494        0.7500001494
Ru            0.5000000000        0.0000000000        0.0000000000
Ru            0.7500001494        0.2499998506       -0.0000000000
Ru            0.7500001494        0.0000000000        0.2499998506
Ru            0.5000000000        0.2499988790        0.2499988790
Ru            0.5000000000        0.0000000000        0.5000000000
Ru            0.7500011210        0.2499988790        0.5000000000
Ru            0.7500001494        0.0000000000        0.7500001494
Ru            0.5000000000        0.2499988790        0.7500011210
Ru            0.5000000000        0.5000000000        0.0000000000
Ru            0.7500001494        0.7500001494        0.0000000000
Ru            0.7500011210        0.5000000000        0.2499988790
Ru            0.5000000000        0.7500011210        0.2499988790
Ru            0.5000000000        0.5000000000        0.5000000000
Ru            0.7500011210        0.7500011210        0.5000000000
Ru            0.7500011210        0.5000000000        0.7500011210
Ru            0.5000000000        0.7500011210        0.7500011210
End final coordinates

     Writing output data file /scratch/nJIRuCfzmRzJodUc.save/

     Final scf calculation at the relaxed structure.
     The G-vectors are recalculated for the final unit cell
     Results may differ from those at the preceding step.

     bravais-lattice index     =            0
     lattice parameter (alat)  =      15.1200  a.u.
     unit-cell volume          =    2986.4491 (a.u.)^3
     number of atoms/cell      =           32
     number of atomic types    =            1
     number of electrons       =       512.00
     number of Kohn-Sham states=          307
     kinetic-energy cutoff     =      71.0000  Ry
     charge density cutoff     =     430.0000  Ry
     scf convergence threshold =      1.0E-08
     mixing beta               =       0.1000
     number of iterations used =           10  plain     mixing
     press convergence thresh. =      5.0E-01
     Exchange-correlation= SLA  PW   PBX  PBC
                           (   1   4   3   4   0   0   0)

     celldm(1)=  15.120000  celldm(2)=   0.000000  celldm(3)=   0.000000
     celldm(4)=   0.000000  celldm(5)=   0.000000  celldm(6)=   0.000000

     crystal axes: (cart. coord. in units of alat)
               a(1) = (   0.952430   0.000000   0.000000 )
               a(2) = (   0.000000   0.952430   0.000000 )
               a(3) = (   0.000000   0.000000   0.952430 )

     reciprocal axes: (cart. coord. in units 2 pi/alat)
               b(1) = (  1.049945  0.000000  0.000000 )
               b(2) = (  0.000000  1.049945  0.000000 )
               b(3) = (  0.000000  0.000000  1.049945 )

     PseudoPot. # 1 for Ru read from file:
     /rds/homes/b/bxp912/pp/Ru.pbe-spn-kjpaw_psl.1.0.0.UPF
     MD5 check sum: 0ae1f594dea09af7be8575c3a481d1ae
     Pseudo is Projector augmented-wave + core cor, Zval = 16.0
     Generated using "atomic" code by A. Dal Corso  v.5.1
     Shape of augmentation charge: PSQ
     Using radial grid of 1233 points,  6 beta functions with:
                l(1) =   0
                l(2) =   0
                l(3) =   1
                l(4) =   1
                l(5) =   2
                l(6) =   2
     Q(r) pseudized with 0 coefficients

     atomic species   valence    mass     pseudopotential
        Ru            16.00   101.07000     Ru( 1.00)

     48 Sym. Ops., with inversion, found

   Cartesian axes

     site n.     atom                  positions (alat units)
         1           Ru  tau(   1) = (   0.0000000   0.0000000   0.0000000  )
         2           Ru  tau(   2) = (   0.2381075   0.2381075  -0.0000000  )
         3           Ru  tau(   3) = (   0.2381075   0.0000000   0.2381075  )
         4           Ru  tau(   4) = (  -0.0000000   0.2381075   0.2381075  )
         5           Ru  tau(   5) = (   0.0000000   0.0000000   0.4762152  )
         6           Ru  tau(   6) = (   0.2381065   0.2381065   0.4762152  )
         7           Ru  tau(   7) = (   0.2381075   0.0000000   0.7143229  )
         8           Ru  tau(   8) = (  -0.0000000   0.2381075   0.7143229  )
         9           Ru  tau(   9) = (   0.0000000   0.4762152   0.0000000  )
        10           Ru  tau(  10) = (   0.2381075   0.7143229   0.0000000  )
        11           Ru  tau(  11) = (   0.2381065   0.4762152   0.2381065  )
        12           Ru  tau(  12) = (  -0.0000000   0.7143229   0.2381075  )
        13           Ru  tau(  13) = (   0.0000000   0.4762152   0.4762152  )
        14           Ru  tau(  14) = (   0.2381065   0.7143239   0.4762152  )
        15           Ru  tau(  15) = (   0.2381065   0.4762152   0.7143239  )
        16           Ru  tau(  16) = (   0.0000000   0.7143229   0.7143229  )
        17           Ru  tau(  17) = (   0.4762152   0.0000000   0.0000000  )
        18           Ru  tau(  18) = (   0.7143229   0.2381075  -0.0000000  )
        19           Ru  tau(  19) = (   0.7143229   0.0000000   0.2381075  )
        20           Ru  tau(  20) = (   0.4762152   0.2381065   0.2381065  )
        21           Ru  tau(  21) = (   0.4762152   0.0000000   0.4762152  )
        22           Ru  tau(  22) = (   0.7143239   0.2381065   0.4762152  )
        23           Ru  tau(  23) = (   0.7143229   0.0000000   0.7143229  )
        24           Ru  tau(  24) = (   0.4762152   0.2381065   0.7143239  )
        25           Ru  tau(  25) = (   0.4762152   0.4762152   0.0000000  )
        26           Ru  tau(  26) = (   0.7143229   0.7143229   0.0000000  )
        27           Ru  tau(  27) = (   0.7143239   0.4762152   0.2381065  )
        28           Ru  tau(  28) = (   0.4762152   0.7143239   0.2381065  )
        29           Ru  tau(  29) = (   0.4762152   0.4762152   0.4762152  )
        30           Ru  tau(  30) = (   0.7143239   0.7143239   0.4762152  )
        31           Ru  tau(  31) = (   0.7143239   0.4762152   0.7143239  )
        32           Ru  tau(  32) = (   0.4762152   0.7143239   0.7143239  )

     number of k points=    35  Marzari-Vanderbilt smearing, width (Ry)=  0.0400
                       cart. coord. in units 2pi/alat
        k(    1) = (   0.0583303   0.0583303   0.0583303), wk =   0.0219479
        k(    2) = (   0.0583303   0.0583303   0.1749909), wk =   0.0658436
        k(    3) = (   0.0583303   0.0583303   0.2916515), wk =   0.0658436
        k(    4) = (   0.0583303   0.0583303   0.4083121), wk =   0.0658436
        k(    5) = (   0.0583303   0.0583303  -0.5249727), wk =   0.0329218
        k(    6) = (   0.0583303   0.1749909   0.1749909), wk =   0.0658436
        k(    7) = (   0.0583303   0.1749909   0.2916515), wk =   0.1316872
        k(    8) = (   0.0583303   0.1749909   0.4083121), wk =   0.1316872
        k(    9) = (   0.0583303   0.1749909  -0.5249727), wk =   0.0658436
        k(   10) = (   0.0583303   0.2916515   0.2916515), wk =   0.0658436
        k(   11) = (   0.0583303   0.2916515   0.4083121), wk =   0.1316872
        k(   12) = (   0.0583303   0.2916515  -0.5249727), wk =   0.0658436
        k(   13) = (   0.0583303   0.4083121   0.4083121), wk =   0.0658436
        k(   14) = (   0.0583303   0.4083121  -0.5249727), wk =   0.0658436
        k(   15) = (   0.0583303  -0.5249727  -0.5249727), wk =   0.0164609
        k(   16) = (   0.1749909   0.1749909   0.1749909), wk =   0.0219479
        k(   17) = (   0.1749909   0.1749909   0.2916515), wk =   0.0658436
        k(   18) = (   0.1749909   0.1749909   0.4083121), wk =   0.0658436
        k(   19) = (   0.1749909   0.1749909  -0.5249727), wk =   0.0329218
        k(   20) = (   0.1749909   0.2916515   0.2916515), wk =   0.0658436
        k(   21) = (   0.1749909   0.2916515   0.4083121), wk =   0.1316872
        k(   22) = (   0.1749909   0.2916515  -0.5249727), wk =   0.0658436
        k(   23) = (   0.1749909   0.4083121   0.4083121), wk =   0.0658436
        k(   24) = (   0.1749909   0.4083121  -0.5249727), wk =   0.0658436
        k(   25) = (   0.1749909  -0.5249727  -0.5249727), wk =   0.0164609
        k(   26) = (   0.2916515   0.2916515   0.2916515), wk =   0.0219479
        k(   27) = (   0.2916515   0.2916515   0.4083121), wk =   0.0658436
        k(   28) = (   0.2916515   0.2916515  -0.5249727), wk =   0.0329218
        k(   29) = (   0.2916515   0.4083121   0.4083121), wk =   0.0658436
        k(   30) = (   0.2916515   0.4083121  -0.5249727), wk =   0.0658436
        k(   31) = (   0.2916515  -0.5249727  -0.5249727), wk =   0.0164609
        k(   32) = (   0.4083121   0.4083121   0.4083121), wk =   0.0219479
        k(   33) = (   0.4083121   0.4083121  -0.5249727), wk =   0.0329218
        k(   34) = (   0.4083121  -0.5249727  -0.5249727), wk =   0.0164609
        k(   35) = (  -0.5249727  -0.5249727  -0.5249727), wk =   0.0027435

     Check: negative core charge=   -0.000002

     Initial potential from superposition of free atoms

     starting charge  511.97959, renormalised to  512.00000
     Starting wfcs are  320 randomized atomic wfcs
     Checking if some PAW data can be deallocated...

     Self-consistent Calculation

[...]

     total energy              =  -13813.30087988 Ry
     estimated scf accuracy    <       0.00000001 Ry

     iteration # 14     ecut=    71.00 Ry     beta= 0.10
     Davidson diagonalization with overlap
     ethr =  2.79E-12,  avg # of iterations =  2.5

     End of self-consistent calculation

[...]

          k = 0.4083-0.5250-0.5250 ( 30188 PWs)   bands (ev):

[...]

          k =-0.5250-0.5250-0.5250 ( 30280 PWs)   bands (ev):

   -49.8258 -49.8258 -49.8258 -49.8258 -49.8258 -49.8258 -49.8258 -49.8258
   -49.7146 -49.7146 -49.7146 -49.7146 -49.7146 -49.7146 -49.7146 -49.7146
   -49.7146 -49.7146 -49.7146 -49.7146 -49.7146 -49.7146 -49.7146 -49.7146
   -49.7146 -49.7146 -49.7146 -49.7146 -49.7146 -49.7146 -49.7146 -49.7145
   -20.1437 -20.1437 -20.1437 -20.1436 -20.1436 -20.1436 -20.1436 -20.1436
   -20.1436 -20.1436 -20.1436 -20.1436 -20.1436 -20.1436 -20.1436 -20.1436
   -20.1436 -20.1436 -20.1436 -20.1436 -20.1436 -20.1436 -20.1436 -20.1436
   -19.8236 -19.8236 -19.8236 -19.8236 -19.8236 -19.8236 -19.8236 -19.8236
   -19.7114 -19.7114 -19.7114 -19.7114 -19.7114 -19.7114 -19.7114 -19.7114
   -19.7114 -19.7114 -19.7114 -19.7114 -19.7114 -19.7114 -19.7114 -19.7114
   -19.7114 -19.7114 -19.7114 -19.7114 -19.7114 -19.7114 -19.7114 -19.7113
   -19.5613 -19.5613 -19.5613 -19.5613 -19.5613 -19.5613 -19.5613 -19.5613
   -19.5613 -19.5613 -19.5613 -19.5613 -19.5613 -19.5613 -19.5613 -19.5613
   -19.5613 -19.5613 -19.5613 -19.5613 -19.5613 -19.5613 -19.5613 -19.5613
   -19.3784 -19.3784 -19.3784 -19.3784 -19.3784 -19.3784 -19.3784 -19.3784
   -19.3784 -19.3784 -19.3784 -19.3784 -19.3784 -19.3784 -19.3784 -19.3784
    17.1432  17.1432  17.1432  17.1432  17.1432  17.1432  17.1432  17.1432
    17.9978  17.9978  17.9978  17.9979  17.9979  17.9979  17.9979  17.9979
    17.9979  17.9979  17.9979  17.9979  17.9979  17.9979  17.9979  17.9979
    17.9979  17.9979  17.9979  17.9979  17.9979  17.9979  17.9979  17.9979
    19.0273  19.0273  19.0273  19.0274  19.0274  19.0274  19.0274  19.0274
    19.0274  19.0274  19.0274  19.0274  19.0274  19.0274  19.0274  19.0274
    19.0274  19.0274  19.0274  19.0274  19.0274  19.0274  19.0274  19.0274
    20.3506  20.3506  20.3506  20.3506  20.3506  20.3506  20.3506  20.3506
    20.9906  20.9906  20.9906  20.9906  20.9906  20.9906  20.9906  20.9906
    20.9906  20.9906  20.9907  20.9907  20.9907  20.9907  20.9907  20.9907
    21.1002  21.1002  21.1002  21.1002  21.1002  21.1002  21.1002  21.1002
    21.1002  21.1002  21.1002  21.1002  21.1002  21.1002  21.1002  21.1002
    21.1002  21.1002  21.1002  21.1002  21.1002  21.1002  21.1002  21.1002
    22.3150  22.3151  22.3151  22.3151  22.3151  22.3151  22.3151  22.3151
    22.3151  22.3151  22.3151  22.3151  22.3151  22.3151  22.3151  22.3151
    22.3151  22.3151  22.3151  22.3151  22.3151  22.3151  22.3151  22.3151
    23.1470  23.1470  23.1470  23.1470  23.1470  23.1470  23.1470  23.1470
    23.1470  23.1470  23.1470  23.1471  23.1471  23.1471  23.1471  23.1471
    24.9446  24.9446  24.9446  24.9446  24.9446  24.9446  24.9446  24.9446
    24.9446  24.9446  24.9446  24.9446  24.9446  24.9446  24.9446  24.9446
    24.9446  24.9446  24.9446  24.9446  24.9446  24.9446  24.9446  24.9446
    28.3250  28.3250  28.3251  28.3251  28.3251  28.3251  28.3251  28.3251
    28.3251  28.3251  28.3251

     the Fermi energy is    23.1143 ev

!    total energy              =  -13813.30088106 Ry

     total all-electron energy =   -289989.691220 Ry
     estimated scf accuracy    <          9.0E-09 Ry
     smearing contrib. (-TS)   =       0.02043216 Ry
     internal energy E=F+TS    =  -13813.32131321 Ry

     The total energy is F=E-TS. E is the sum of the following terms:
     one-electron contribution =    -995.54675208 Ry
     hartree contribution      =     916.01675392 Ry
     xc contribution           =    -928.06568833 Ry
     ewald contribution        =   -5216.28336573 Ry
     one-center paw contrib.   =   -7589.44226099 Ry

     convergence has been achieved in  14 iterations

     Forces acting on atoms (cartesian axes, Ry/au):

     atom    1 type  1   force =     0.00000000    0.00000000    0.00000000
     atom    2 type  1   force =     0.00002244    0.00002244   -0.00000000
     atom    3 type  1   force =     0.00002244    0.00000000    0.00002244
     atom    4 type  1   force =     0.00000000    0.00002244    0.00002244
     atom    5 type  1   force =     0.00000000    0.00000000    0.00000000
     atom    6 type  1   force =    -0.00001659   -0.00001659    0.00000000
     atom    7 type  1   force =     0.00002244   -0.00000000   -0.00002244
     atom    8 type  1   force =     0.00000000    0.00002244   -0.00002244
     atom    9 type  1   force =     0.00000000    0.00000000    0.00000000
     atom   10 type  1   force =     0.00002244   -0.00002244    0.00000000
     atom   11 type  1   force =    -0.00001659   -0.00000000   -0.00001659
     atom   12 type  1   force =     0.00000000   -0.00002244    0.00002244
     atom   13 type  1   force =     0.00000000    0.00000000    0.00000000
     atom   14 type  1   force =    -0.00001659    0.00001659   -0.00000000
     atom   15 type  1   force =    -0.00001659    0.00000000    0.00001659
     atom   16 type  1   force =     0.00000000   -0.00002244   -0.00002244
     atom   17 type  1   force =     0.00000000    0.00000000    0.00000000
     atom   18 type  1   force =    -0.00002244    0.00002244    0.00000000
     atom   19 type  1   force =    -0.00002244   -0.00000000    0.00002244
     atom   20 type  1   force =     0.00000000   -0.00001659   -0.00001659
     atom   21 type  1   force =     0.00000000    0.00000000    0.00000000
     atom   22 type  1   force =     0.00001659   -0.00001659   -0.00000000
     atom   23 type  1   force =    -0.00002244    0.00000000   -0.00002244
     atom   24 type  1   force =    -0.00000000   -0.00001659    0.00001659
     atom   25 type  1   force =     0.00000000    0.00000000    0.00000000
     atom   26 type  1   force =    -0.00002244   -0.00002244   -0.00000000
     atom   27 type  1   force =     0.00001659    0.00000000   -0.00001659
     atom   28 type  1   force =    -0.00000000    0.00001659   -0.00001659
     atom   29 type  1   force =     0.00000000    0.00000000    0.00000000
     atom   30 type  1   force =     0.00001659    0.00001659    0.00000000
     atom   31 type  1   force =     0.00001659    0.00000000    0.00001659
     atom   32 type  1   force =    -0.00000000    0.00001659    0.00001659

     Total force =     0.000137     Total SCF correction =     0.000643
     SCF correction compared to forces is large: reduce conv_thr to get better values

     Computing stress (Cartesian axis) and pressure

          total   stress  (Ry/bohr**3)                   (kbar)     P=       -4.35
  -0.00002954   0.00000000   0.00000000           -4.35        0.00        0.00
   0.00000000  -0.00002954   0.00000000            0.00       -4.35        0.00
   0.00000000   0.00000000  -0.00002954            0.00        0.00       -4.35

     Writing output data file /scratch/nJIRuCfzmRzJodUc.save/

     General routines

     Parallel routines

   This run was terminated on:  11:43:53  23Nov2021

   JOB DONE.